 DBCSR| CPU Multiplication driver                                           XSMM (U)
 DBCSR| Multrec recursion limit                                              512 (U)
 DBCSR| Multiplication stack size                                           1000 (D)
 DBCSR| Maximum elements for images                                    UNLIMITED (U)
 DBCSR| Multiplicative factor virtual images                                   1 (U)
 DBCSR| Use multiplication densification                                       T (D)
 DBCSR| Multiplication size stacks                                             3 (U)
 DBCSR| Use memory pool for CPU allocation                                     F (U)
 DBCSR| Number of 3D layers                                               SINGLE (U)
 DBCSR| Use MPI memory allocation                                              F (U)
 DBCSR| Use RMA algorithm                                                      F (U)
 DBCSR| Use Communication thread                                               T (U)
 DBCSR| Communication thread load                                             87 (D)
 DBCSR| MPI: My process id                                                     0
 DBCSR| MPI: Number of processes                                              32
 DBCSR| OMP: Current number of threads                                         1
 DBCSR| OMP: Max number of threads                                             1
 DBCSR| Split modifier for TAS multiplication algorithm                  1.0E+00 (U)


  **** **** ******  **  PROGRAM STARTED AT               2026-09-30 21:32:10.675
 ***** ** ***  *** **   PROGRAM STARTED ON                                  cu06
 **    ****   ******    PROGRAM STARTED BY                                 rudin
 ***** **    ** ** **   PROGRAM PROCESS ID                                490312
  **** **  *******  **  PROGRAM STARTED IN /home/rudin/tmp-review-cp2k/4c-admm/S
                                           i128

 CP2K| version string:                                       CP2K version 2024.3
 CP2K| source code revision number:                                  git:6712648
 CP2K| cp2kflags: omp libint fftw3 libxc libgrpp elpa parallel scalapack mpi_f08
 CP2K|             cosma xsmm plumed2 spglib mkl libvori libbqb
 CP2K| is freely available from                            https://www.cp2k.org/
 CP2K| Program compiled at            2026年 01月 07日 星期三 01:43:54 CST
 CP2K| Program compiled on                                                  mu01
 CP2K| Program compiled for                                                local
 CP2K| Data directory path    /software/Applications/cp2k/cp2k-2024.3-oneapi-202
 CP2K| Input file name                                                  cp2k.inp
 
 GLOBAL| Force Environment number                                              1
 GLOBAL| Basis set file name                                        BASIS_MOLOPT
 GLOBAL| Potential file name                                      GTH_POTENTIALS
 GLOBAL| MM Potential file name                                     MM_POTENTIAL
 GLOBAL| Coordinate file name                                      __STD_INPUT__
 GLOBAL| Method name                                                        CP2K
 GLOBAL| Project name                                        Si128-HSE06-4c-ADMM
 GLOBAL| Run type                                                         ENERGY
 GLOBAL| FFT library                                                       FFTW3
 GLOBAL| Diagonalization library                                            ELPA
 GLOBAL| DGEMM library                                                      BLAS
 GLOBAL| Minimum number of eigenvectors for ELPA usage                        16
 GLOBAL| Orthonormality check for eigenvectors                          DISABLED
 GLOBAL| Matrix multiplication library                                     COSMA
 GLOBAL| All-to-all communication in single precision                          F
 GLOBAL| FFTs using library dependent lengths                                  F
 GLOBAL| Grid backend                                                       AUTO
 GLOBAL| Global print level                                               MEDIUM
 GLOBAL| MPI I/O enabled                                                       T
 GLOBAL| Total number of message passing processes                            32
 GLOBAL| Number of threads for this process                                    1
 GLOBAL| This output is from process                                           0
 GLOBAL| Stack size for threads created by OpenMP (OMP_STACKSIZE)        default
 GLOBAL| CPU model name                              INTEL(R) XEON(R) GOLD 6544Y
 GLOBAL| CPUID                                                              1003

 MEMORY| system memory details [Kb]
 MEMORY|                        rank 0           min           max       average
 MEMORY| MemTotal            527978136     527978136     527978136     527978136
 MEMORY| MemFree             349981316     349981316     349982576     349982016
 MEMORY| Buffers                333756        333756        333756        333756
 MEMORY| Cached              161198048     161197780     161198048     161197988
 MEMORY| Slab                 10692252      10692252      10692252      10692252
 MEMORY| SReclaimable          9133784       9133784       9133784       9133784
 MEMORY| MemLikelyFree       520646904     520646904     520647984     520647545


 *** Fundamental physical constants (SI units) ***

 *** Literature: B. J. Mohr and B. N. Taylor,
 ***             CODATA recommended values of the fundamental physical
 ***             constants: 2006, Web Version 5.1
 ***             http://physics.nist.gov/constants

 Speed of light in vacuum [m/s]                             2.99792458000000E+08
 Magnetic constant or permeability of vacuum [N/A**2]       1.25663706143592E-06
 Electric constant or permittivity of vacuum [F/m]          8.85418781762039E-12
 Planck constant (h) [J*s]                                  6.62606896000000E-34
 Planck constant (h-bar) [J*s]                              1.05457162825177E-34
 Elementary charge [C]                                      1.60217648700000E-19
 Electron mass [kg]                                         9.10938215000000E-31
 Electron g factor [ ]                                     -2.00231930436220E+00
 Proton mass [kg]                                           1.67262163700000E-27
 Fine-structure constant                                    7.29735253760000E-03
 Rydberg constant [1/m]                                     1.09737315685270E+07
 Avogadro constant [1/mol]                                  6.02214179000000E+23
 Boltzmann constant [J/K]                                   1.38065040000000E-23
 Atomic mass unit [kg]                                      1.66053878200000E-27
 Bohr radius [m]                                            5.29177208590000E-11

 *** Conversion factors ***

 [u] -> [a.u.]                                              1.82288848426455E+03
 [Angstrom] -> [Bohr] = [a.u.]                              1.88972613288564E+00
 [a.u.] = [Bohr] -> [Angstrom]                              5.29177208590000E-01
 [a.u.] -> [s]                                              2.41888432650478E-17
 [a.u.] -> [fs]                                             2.41888432650478E-02
 [a.u.] -> [J]                                              4.35974393937059E-18
 [a.u.] -> [N]                                              8.23872205491840E-08
 [a.u.] -> [K]                                              3.15774647902944E+05
 [a.u.] -> [kJ/mol]                                         2.62549961709828E+03
 [a.u.] -> [kcal/mol]                                       6.27509468713739E+02
 [a.u.] -> [Pa]                                             2.94210107994716E+13
 [a.u.] -> [bar]                                            2.94210107994716E+08
 [a.u.] -> [atm]                                            2.90362800883016E+08
 [a.u.] -> [eV]                                             2.72113838565563E+01
 [a.u.] -> [Hz]                                             6.57968392072181E+15
 [a.u.] -> [1/cm] (wave numbers)                            2.19474631370540E+05
 [a.u./Bohr**2] -> [1/cm]                                   5.14048714338585E+03
 

 CELL_TOP| Volume [angstrom^3]:                                      2563.063648
 CELL_TOP| Vector a [angstrom    21.724     0.000     0.000   |a| =    21.724000
 CELL_TOP| Vector b [angstrom     0.000    10.862     0.000   |b| =    10.862000
 CELL_TOP| Vector c [angstrom     0.000     0.000    10.862   |c| =    10.862000
 CELL_TOP| Angle (b,c), alpha [degree]:                                90.000000
 CELL_TOP| Angle (a,c), beta  [degree]:                                90.000000
 CELL_TOP| Angle (a,b), gamma [degree]:                                90.000000
 CELL_TOP| Numerically orthorhombic:                                         YES
 CELL_TOP| Periodicity                                                       XYZ
 
 GENERATE|  Preliminary Number of Bonds generated:                             0
 GENERATE|  Achieved consistency in connectivity generation.

 CELL| Volume [angstrom^3]:                                          2563.063648
 CELL| Vector a [angstrom]:      21.724     0.000     0.000   |a| =    21.724000
 CELL| Vector b [angstrom]:       0.000    10.862     0.000   |b| =    10.862000
 CELL| Vector c [angstrom]:       0.000     0.000    10.862   |c| =    10.862000
 CELL| Angle (b,c), alpha [degree]:                                    90.000000
 CELL| Angle (a,c), beta  [degree]:                                    90.000000
 CELL| Angle (a,b), gamma [degree]:                                    90.000000
 CELL| Numerically orthorhombic:                                             YES
 CELL| Periodicity                                                           XYZ

 CELL_REF| Volume [angstrom^3]:                                      2563.063648
 CELL_REF| Vector a [angstrom    21.724     0.000     0.000   |a| =    21.724000
 CELL_REF| Vector b [angstrom     0.000    10.862     0.000   |b| =    10.862000
 CELL_REF| Vector c [angstrom     0.000     0.000    10.862   |c| =    10.862000
 CELL_REF| Angle (b,c), alpha [degree]:                                90.000000
 CELL_REF| Angle (a,c), beta  [degree]:                                90.000000
 CELL_REF| Angle (a,b), gamma [degree]:                                90.000000
 CELL_REF| Numerically orthorhombic:                                         YES
 CELL_REF| Periodicity                                                       XYZ

 *******************************************************************************
 *******************************************************************************
 **                                                                           **
 **     #####                         ##              ##                      **
 **    ##   ##            ##          ##              ##                      **
 **   ##     ##                       ##            ######                    **
 **   ##     ##  ##   ##  ##   #####  ##  ##   ####   ##    #####    #####    **
 **   ##     ##  ##   ##  ##  ##      ## ##   ##      ##   ##   ##  ##   ##   **
 **   ##  ## ##  ##   ##  ##  ##      ####     ###    ##   ######   ######    **
 **    ##  ###   ##   ##  ##  ##      ## ##      ##   ##   ##       ##        **
 **     #######   #####   ##   #####  ##  ##  ####    ##    #####   ##        **
 **           ##                                                    ##        **
 **                                                                           **
 **                                                ... make the atoms dance   **
 **                                                                           **
 **            Copyright (C) by CP2K developers group (2000-2024)             **
 **                      J. Chem. Phys. 152, 194103 (2020)                    **
 **                                                                           **
 *******************************************************************************

 DFT| Spin restricted Kohn-Sham (RKS) calculation                            RKS
 DFT| Multiplicity                                                             1
 DFT| Number of spin states                                                    1
 DFT| Charge                                                                   0
 DFT| Self-interaction correction (SIC)                                       NO
 DFT| Cutoffs: density                                              1.000000E-10
 DFT|          gradient                                             1.000000E-10
 DFT|          tau                                                  1.000000E-10
 DFT|          cutoff_smoothing_range                               0.000000E+00
 DFT| XC density smoothing                                                  NONE
 DFT| XC derivatives                                                          PW

 FUNCTIONAL| PBE:
 FUNCTIONAL| J.P.Perdew, K.Burke, M.Ernzerhof, Phys. Rev. Letter, vol. 77, n 18,
 FUNCTIONAL|  pp. 3865-3868, (1996)sx=0.000sc=1.000{spin unpolarized}           
 FUNCTIONAL| XWPBE:
 FUNCTIONAL| Jochen Heyd and Gustavo E. Scuseria, J. Chem. Phys., 120, 7274 {LDA
 FUNCTIONAL|  version}                                                          


 QS| Method:                                                                 GPW
 QS| Density plane wave grid type                        NON-SPHERICAL FULLSPACE
 QS| Number of grid levels:                                                    4
 QS| Density cutoff [a.u.]:                                                300.0
 QS| Multi grid cutoff [a.u.]: 1) grid level                               300.0
 QS|                           2) grid level                               100.0
 QS|                           3) grid level                                33.3
 QS|                           4) grid level                                11.1
 QS| Grid level progression factor:                                          3.0
 QS| Relative density cutoff [a.u.]:                                        30.0
 QS| Interaction thresholds: eps_pgf_orb:                                1.0E-06
 QS|                         eps_filter_matrix:                          0.0E+00
 QS|                         eps_core_charge:                            1.0E-14
 QS|                         eps_rho_gspace:                             1.0E-12
 QS|                         eps_rho_rspace:                             1.0E-12
 QS|                         eps_gvg_rspace:                             1.0E-06
 QS|                         eps_ppl:                                    1.0E-02
 QS|                         eps_ppnl:                                   1.0E-08

 ADMM| Specific ADMM type specified                                        ADMMS
 ADMM| Density matrix purification method                                   NONE
 ADMM| Orbital projection with charge constrain
 ADMM| Use Merlot (2014) scaling model
 ADMM| eps_filter                                                0.000000000    
 ADMM| Exchange functional in correction term                            (W)PBEX



 ATOMIC KIND INFORMATION

  1. Atomic kind: Si                                    Number of atoms:     128

     Orbital Basis Set                                        DZVP-MOLOPT-SR-GTH

       Number of orbital shell sets:                                           1
       Number of orbital shells:                                               5
       Number of primitive Cartesian functions:                                4
       Number of Cartesian basis functions:                                   14
       Number of spherical basis functions:                                   13
       Norm type:                                                              2

       Normalised Cartesian orbitals:

                        Set   Shell   Orbital            Exponent    Coefficient

                          1       1    2s                1.256768       0.294045
                                                         0.506394      -0.015884
                                                         0.238884      -0.207657
                                                         0.087337      -0.036225

                          1       2    3s                1.256768      -1.532347
                                                         0.506394       0.524539
                                                         0.238884       0.025013
                                                         0.087337      -0.052203

                          1       3    3px               1.256768       0.152274
                                                         0.506394      -0.154145
                                                         0.238884      -0.115581
                                                         0.087337      -0.028372
                          1       3    3py               1.256768       0.152274
                                                         0.506394      -0.154145
                                                         0.238884      -0.115581
                                                         0.087337      -0.028372
                          1       3    3pz               1.256768       0.152274
                                                         0.506394      -0.154145
                                                         0.238884      -0.115581
                                                         0.087337      -0.028372

                          1       4    4px               1.256768       0.313378
                                                         0.506394      -0.415360
                                                         0.238884      -0.022539
                                                         0.087337       0.078473
                          1       4    4py               1.256768       0.313378
                                                         0.506394      -0.415360
                                                         0.238884      -0.022539
                                                         0.087337       0.078473
                          1       4    4pz               1.256768       0.313378
                                                         0.506394      -0.415360
                                                         0.238884      -0.022539
                                                         0.087337       0.078473

                          1       5    4dx2              1.256768       0.325879
                                                         0.506394       0.163831
                                                         0.238884       0.044076
                                                         0.087337       0.010608
                          1       5    4dxy              1.256768       0.564439
                                                         0.506394       0.283764
                                                         0.238884       0.076342
                                                         0.087337       0.018373
                          1       5    4dxz              1.256768       0.564439
                                                         0.506394       0.283764
                                                         0.238884       0.076342
                                                         0.087337       0.018373
                          1       5    4dy2              1.256768       0.325879
                                                         0.506394       0.163831
                                                         0.238884       0.044076
                                                         0.087337       0.010608
                          1       5    4dyz              1.256768       0.564439
                                                         0.506394       0.283764
                                                         0.238884       0.076342
                                                         0.087337       0.018373
                          1       5    4dz2              1.256768       0.325879
                                                         0.506394       0.163831
                                                         0.238884       0.044076
                                                         0.087337       0.010608

     Auxiliary Fit Basis Set                                              cpFIT3

       Number of orbital shell sets:                                           5
       Number of orbital shells:                                               5
       Number of primitive Cartesian functions:                                7
       Number of Cartesian basis functions:                                   14
       Number of spherical basis functions:                                   13
       Norm type:                                                              2

       Normalised Cartesian orbitals:

                        Set   Shell   Orbital            Exponent    Coefficient

                          1       1    1px               0.089490       0.069768
                          1       1    1py               0.089490       0.069768
                          1       1    1pz               0.089490       0.069768

                          2       1    1s                0.096480       0.123378

                          3       1    1s                0.246960      -0.309315
                                                         1.277560       0.429908

                          4       1    1px               0.295630       0.313983
                                                         2.202470      -0.124968
                          4       1    1py               0.295630       0.313983
                                                         2.202470      -0.124968
                          4       1    1pz               0.295630       0.313983
                                                         2.202470      -0.124968

                          5       1    1dx2              0.450000       0.406941
                          5       1    1dxy              0.450000       0.704842
                          5       1    1dxz              0.450000       0.704842
                          5       1    1dy2              0.450000       0.406941
                          5       1    1dyz              0.450000       0.704842
                          5       1    1dz2              0.450000       0.406941

       Atomic covalent radius [Angstrom]:                                  1.110

       Atomic van der Waals radius [Angstrom]:                             2.100

     GTH Potential information for                                    GTH-PBE-q4

       Description:                       Goedecker-Teter-Hutter pseudopotential
                                           Goedecker et al., PRB 54, 1703 (1996)
                                          Hartwigsen et al., PRB 58, 3641 (1998)
                                                      Krack, TCA 114, 145 (2005)

       Gaussian exponent of the core charge distribution:               2.582645
       Electronic configuration (s p d ...):                               2   2

       Parameters of the local part of the GTH pseudopotential:

                          rloc        C1          C2          C3          C4
                        0.440000   -6.269288

       Parameters of the non-local part of the GTH pseudopotential:

                   l      r(l)      h(i,j,l)

                   0    0.435634    8.951742   -2.706271
                                   -2.706271    3.493781
                   1    0.497942    2.431277


 MOLECULE KIND INFORMATION


 All atoms are their own molecule, skipping detailed information


 TOTAL NUMBERS AND MAXIMUM NUMBERS

  Total number of            - Atomic kinds:                                   1
                             - Atoms:                                        128
                             - Shell sets:                                   128
                             - Shells:                                       640
                             - Primitive Cartesian functions:                512
                             - Cartesian basis functions:                   1792
                             - Spherical basis functions:                   1664

  Maximum angular momentum of- Orbital basis functions:                        2
                             - Local part of the GTH pseudopotential:          0
                             - Non-local part of the GTH pseudopotential:      2

  AUX_FIT ADMM-Basis: 
  Total number of            - Shell sets:                                   640
                             - Shells:                                       640
                             - Primitive Cartesian functions:                896
                             - Cartesian basis functions:                   1792
                             - Spherical basis functions:                   1664
                               Maximum angular momentum                        2


 MODULE QUICKSTEP: ATOMIC COORDINATES IN ANGSTROM

   Atom Kind Element         X             Y             Z       Z(eff)     Mass
      1    1 Si   14      0.000000      0.000000      0.000000   4.0000  28.0855
      2    1 Si   14      0.000000      2.715500      2.715500   4.0000  28.0855
      3    1 Si   14      2.715500      0.000000      2.715500   4.0000  28.0855
      4    1 Si   14      2.715500      2.715500      0.000000   4.0000  28.0855
      5    1 Si   14      1.357750      1.357750      1.357750   4.0000  28.0855
      6    1 Si   14      1.357750      4.073250      4.073250   4.0000  28.0855
      7    1 Si   14      4.073250      1.357750      4.073250   4.0000  28.0855
      8    1 Si   14      4.073250      4.073250      1.357750   4.0000  28.0855
      9    1 Si   14      0.000000      0.000000      5.431000   4.0000  28.0855
     10    1 Si   14      0.000000      2.715500      8.146500   4.0000  28.0855
     11    1 Si   14      2.715500      0.000000      8.146500   4.0000  28.0855
     12    1 Si   14      2.715500      2.715500      5.431000   4.0000  28.0855
     13    1 Si   14      1.357750      1.357750      6.788750   4.0000  28.0855
     14    1 Si   14      1.357750      4.073250      9.504250   4.0000  28.0855
     15    1 Si   14      4.073250      1.357750      9.504250   4.0000  28.0855
     16    1 Si   14      4.073250      4.073250      6.788750   4.0000  28.0855
     17    1 Si   14      0.000000      5.431000      0.000000   4.0000  28.0855
     18    1 Si   14      0.000000      8.146500      2.715500   4.0000  28.0855
     19    1 Si   14      2.715500      5.431000      2.715500   4.0000  28.0855
     20    1 Si   14      2.715500      8.146500      0.000000   4.0000  28.0855
     21    1 Si   14      1.357750      6.788750      1.357750   4.0000  28.0855
     22    1 Si   14      1.357750      9.504250      4.073250   4.0000  28.0855
     23    1 Si   14      4.073250      6.788750      4.073250   4.0000  28.0855
     24    1 Si   14      4.073250      9.504250      1.357750   4.0000  28.0855
     25    1 Si   14      0.000000      5.431000      5.431000   4.0000  28.0855
     26    1 Si   14      0.000000      8.146500      8.146500   4.0000  28.0855
     27    1 Si   14      2.715500      5.431000      8.146500   4.0000  28.0855
     28    1 Si   14      2.715500      8.146500      5.431000   4.0000  28.0855
     29    1 Si   14      1.357750      6.788750      6.788750   4.0000  28.0855
     30    1 Si   14      1.357750      9.504250      9.504250   4.0000  28.0855
     31    1 Si   14      4.073250      6.788750      9.504250   4.0000  28.0855
     32    1 Si   14      4.073250      9.504250      6.788750   4.0000  28.0855
     33    1 Si   14      5.431000      0.000000      0.000000   4.0000  28.0855
     34    1 Si   14      5.431000      2.715500      2.715500   4.0000  28.0855
     35    1 Si   14      8.146500      0.000000      2.715500   4.0000  28.0855
     36    1 Si   14      8.146500      2.715500      0.000000   4.0000  28.0855
     37    1 Si   14      6.788750      1.357750      1.357750   4.0000  28.0855
     38    1 Si   14      6.788750      4.073250      4.073250   4.0000  28.0855
     39    1 Si   14      9.504250      1.357750      4.073250   4.0000  28.0855
     40    1 Si   14      9.504250      4.073250      1.357750   4.0000  28.0855
     41    1 Si   14      5.431000      0.000000      5.431000   4.0000  28.0855
     42    1 Si   14      5.431000      2.715500      8.146500   4.0000  28.0855
     43    1 Si   14      8.146500      0.000000      8.146500   4.0000  28.0855
     44    1 Si   14      8.146500      2.715500      5.431000   4.0000  28.0855
     45    1 Si   14      6.788750      1.357750      6.788750   4.0000  28.0855
     46    1 Si   14      6.788750      4.073250      9.504250   4.0000  28.0855
     47    1 Si   14      9.504250      1.357750      9.504250   4.0000  28.0855
     48    1 Si   14      9.504250      4.073250      6.788750   4.0000  28.0855
     49    1 Si   14      5.431000      5.431000      0.000000   4.0000  28.0855
     50    1 Si   14      5.431000      8.146500      2.715500   4.0000  28.0855
     51    1 Si   14      8.146500      5.431000      2.715500   4.0000  28.0855
     52    1 Si   14      8.146500      8.146500      0.000000   4.0000  28.0855
     53    1 Si   14      6.788750      6.788750      1.357750   4.0000  28.0855
     54    1 Si   14      6.788750      9.504250      4.073250   4.0000  28.0855
     55    1 Si   14      9.504250      6.788750      4.073250   4.0000  28.0855
     56    1 Si   14      9.504250      9.504250      1.357750   4.0000  28.0855
     57    1 Si   14      5.431000      5.431000      5.431000   4.0000  28.0855
     58    1 Si   14      5.431000      8.146500      8.146500   4.0000  28.0855
     59    1 Si   14      8.146500      5.431000      8.146500   4.0000  28.0855
     60    1 Si   14      8.146500      8.146500      5.431000   4.0000  28.0855
     61    1 Si   14      6.788750      6.788750      6.788750   4.0000  28.0855
     62    1 Si   14      6.788750      9.504250      9.504250   4.0000  28.0855
     63    1 Si   14      9.504250      6.788750      9.504250   4.0000  28.0855
     64    1 Si   14      9.504250      9.504250      6.788750   4.0000  28.0855
     65    1 Si   14     10.862000      0.000000      0.000000   4.0000  28.0855
     66    1 Si   14     10.862000      2.715500      2.715500   4.0000  28.0855
     67    1 Si   14     13.577500      0.000000      2.715500   4.0000  28.0855
     68    1 Si   14     13.577500      2.715500      0.000000   4.0000  28.0855
     69    1 Si   14     12.219750      1.357750      1.357750   4.0000  28.0855
     70    1 Si   14     12.219750      4.073250      4.073250   4.0000  28.0855
     71    1 Si   14     14.935250      1.357750      4.073250   4.0000  28.0855
     72    1 Si   14     14.935250      4.073250      1.357750   4.0000  28.0855
     73    1 Si   14     10.862000      0.000000      5.431000   4.0000  28.0855
     74    1 Si   14     10.862000      2.715500      8.146500   4.0000  28.0855
     75    1 Si   14     13.577500      0.000000      8.146500   4.0000  28.0855
     76    1 Si   14     13.577500      2.715500      5.431000   4.0000  28.0855
     77    1 Si   14     12.219750      1.357750      6.788750   4.0000  28.0855
     78    1 Si   14     12.219750      4.073250      9.504250   4.0000  28.0855
     79    1 Si   14     14.935250      1.357750      9.504250   4.0000  28.0855
     80    1 Si   14     14.935250      4.073250      6.788750   4.0000  28.0855
     81    1 Si   14     10.862000      5.431000      0.000000   4.0000  28.0855
     82    1 Si   14     10.862000      8.146500      2.715500   4.0000  28.0855
     83    1 Si   14     13.577500      5.431000      2.715500   4.0000  28.0855
     84    1 Si   14     13.577500      8.146500      0.000000   4.0000  28.0855
     85    1 Si   14     12.219750      6.788750      1.357750   4.0000  28.0855
     86    1 Si   14     12.219750      9.504250      4.073250   4.0000  28.0855
     87    1 Si   14     14.935250      6.788750      4.073250   4.0000  28.0855
     88    1 Si   14     14.935250      9.504250      1.357750   4.0000  28.0855
     89    1 Si   14     10.862000      5.431000      5.431000   4.0000  28.0855
     90    1 Si   14     10.862000      8.146500      8.146500   4.0000  28.0855
     91    1 Si   14     13.577500      5.431000      8.146500   4.0000  28.0855
     92    1 Si   14     13.577500      8.146500      5.431000   4.0000  28.0855
     93    1 Si   14     12.219750      6.788750      6.788750   4.0000  28.0855
     94    1 Si   14     12.219750      9.504250      9.504250   4.0000  28.0855
     95    1 Si   14     14.935250      6.788750      9.504250   4.0000  28.0855
     96    1 Si   14     14.935250      9.504250      6.788750   4.0000  28.0855
     97    1 Si   14     16.293000      0.000000      0.000000   4.0000  28.0855
     98    1 Si   14     16.293000      2.715500      2.715500   4.0000  28.0855
     99    1 Si   14     19.008500      0.000000      2.715500   4.0000  28.0855
    100    1 Si   14     19.008500      2.715500      0.000000   4.0000  28.0855
    101    1 Si   14     17.650750      1.357750      1.357750   4.0000  28.0855
    102    1 Si   14     17.650750      4.073250      4.073250   4.0000  28.0855
    103    1 Si   14     20.366250      1.357750      4.073250   4.0000  28.0855
    104    1 Si   14     20.366250      4.073250      1.357750   4.0000  28.0855
    105    1 Si   14     16.293000      0.000000      5.431000   4.0000  28.0855
    106    1 Si   14     16.293000      2.715500      8.146500   4.0000  28.0855
    107    1 Si   14     19.008500      0.000000      8.146500   4.0000  28.0855
    108    1 Si   14     19.008500      2.715500      5.431000   4.0000  28.0855
    109    1 Si   14     17.650750      1.357750      6.788750   4.0000  28.0855
    110    1 Si   14     17.650750      4.073250      9.504250   4.0000  28.0855
    111    1 Si   14     20.366250      1.357750      9.504250   4.0000  28.0855
    112    1 Si   14     20.366250      4.073250      6.788750   4.0000  28.0855
    113    1 Si   14     16.293000      5.431000      0.000000   4.0000  28.0855
    114    1 Si   14     16.293000      8.146500      2.715500   4.0000  28.0855
    115    1 Si   14     19.008500      5.431000      2.715500   4.0000  28.0855
    116    1 Si   14     19.008500      8.146500      0.000000   4.0000  28.0855
    117    1 Si   14     17.650750      6.788750      1.357750   4.0000  28.0855
    118    1 Si   14     17.650750      9.504250      4.073250   4.0000  28.0855
    119    1 Si   14     20.366250      6.788750      4.073250   4.0000  28.0855
    120    1 Si   14     20.366250      9.504250      1.357750   4.0000  28.0855
    121    1 Si   14     16.293000      5.431000      5.431000   4.0000  28.0855
    122    1 Si   14     16.293000      8.146500      8.146500   4.0000  28.0855
    123    1 Si   14     19.008500      5.431000      8.146500   4.0000  28.0855
    124    1 Si   14     19.008500      8.146500      5.431000   4.0000  28.0855
    125    1 Si   14     17.650750      6.788750      6.788750   4.0000  28.0855
    126    1 Si   14     17.650750      9.504250      9.504250   4.0000  28.0855
    127    1 Si   14     20.366250      6.788750      9.504250   4.0000  28.0855
    128    1 Si   14     20.366250      9.504250      6.788750   4.0000  28.0855



 SCF PARAMETERS         Density guess:                                    ATOMIC
                        --------------------------------------------------------
                        max_scf:                                              50
                        max_scf_history:                                       0
                        max_diis:                                              4
                        --------------------------------------------------------
                        eps_scf:                                        1.00E-06
                        eps_scf_history:                                0.00E+00
                        eps_diis:                                       1.00E-01
                        eps_eigval:                                     1.00E-05
                        --------------------------------------------------------
                        level_shift [a.u.]:                             0.000000
                        --------------------------------------------------------
                        Outer loop SCF in use 
                        No variables optimised in outer loop
                        eps_scf                                         1.00E-06
                        max_scf                                               50
                        No outer loop optimization
                        step_size                                       5.00E-01

 PW_GRID| Information for grid number                                          1
 PW_GRID| Grid distributed over                                    32 processors
 PW_GRID| Real space group dimensions                                    32    1
 PW_GRID| the grid is blocked:                                                NO
 PW_GRID| Cutoff [a.u.]                                                    300.0
 PW_GRID| spherical cutoff:                                                   NO
 PW_GRID|   Bounds   1           -162     161                Points:         324
 PW_GRID|   Bounds   2            -81      80                Points:         162
 PW_GRID|   Bounds   3            -81      80                Points:         162
 PW_GRID| Volume element (a.u.^3)  0.2034E-02     Volume (a.u.^3)     17296.4111
 PW_GRID| Grid span                                                    FULLSPACE
 PW_GRID|   Distribution                         Average         Max         Min
 PW_GRID|   G-Vectors                           265720.5      266004      265680
 PW_GRID|   G-Rays                                 820.1         821         820
 PW_GRID|   Real Space Points                   265720.5      288684      262440

 PW_GRID| Information for grid number                                          2
 PW_GRID| Number of the reference grid                                         1
 PW_GRID| Grid distributed over                                    32 processors
 PW_GRID| Real space group dimensions                                    32    1
 PW_GRID| the grid is blocked:                                                NO
 PW_GRID| Cutoff [a.u.]                                                    100.0
 PW_GRID| spherical cutoff:                                                   NO
 PW_GRID|   Bounds   1            -96      95                Points:         192
 PW_GRID|   Bounds   2            -48      47                Points:          96
 PW_GRID|   Bounds   3            -48      47                Points:          96
 PW_GRID| Volume element (a.u.^3)  0.9775E-02     Volume (a.u.^3)     17296.4111
 PW_GRID| Grid span                                                    FULLSPACE
 PW_GRID|   Distribution                         Average         Max         Min
 PW_GRID|   G-Vectors                            55296.0       55872       54912
 PW_GRID|   G-Rays                                 288.0         291         286
 PW_GRID|   Real Space Points                    55296.0       55296       55296

 PW_GRID| Information for grid number                                          3
 PW_GRID| Number of the reference grid                                         1
 PW_GRID| Grid distributed over                                    32 processors
 PW_GRID| Real space group dimensions                                    32    1
 PW_GRID| the grid is blocked:                                                NO
 PW_GRID| Cutoff [a.u.]                                                     33.3
 PW_GRID| spherical cutoff:                                                   NO
 PW_GRID|   Bounds   1            -54      53                Points:         108
 PW_GRID|   Bounds   2            -27      26                Points:          54
 PW_GRID|   Bounds   3            -27      26                Points:          54
 PW_GRID| Volume element (a.u.^3)  0.5492E-01     Volume (a.u.^3)     17296.4111
 PW_GRID| Grid span                                                    FULLSPACE
 PW_GRID|   Distribution                         Average         Max         Min
 PW_GRID|   G-Vectors                             9841.5        9936        9720
 PW_GRID|   G-Rays                                  91.1          92          90
 PW_GRID|   Real Space Points                     9841.5       11664        8748

 PW_GRID| Information for grid number                                          4
 PW_GRID| Number of the reference grid                                         1
 PW_GRID| Grid distributed over                                    32 processors
 PW_GRID| Real space group dimensions                                    32    1
 PW_GRID| the grid is blocked:                                                NO
 PW_GRID| Cutoff [a.u.]                                                     11.1
 PW_GRID| spherical cutoff:                                                   NO
 PW_GRID|   Bounds   1            -32      31                Points:          64
 PW_GRID|   Bounds   2            -16      15                Points:          32
 PW_GRID|   Bounds   3            -16      15                Points:          32
 PW_GRID| Volume element (a.u.^3)  0.2639         Volume (a.u.^3)     17296.4111
 PW_GRID| Grid span                                                    FULLSPACE
 PW_GRID|   Distribution                         Average         Max         Min
 PW_GRID|   G-Vectors                             2048.0        2240        1920
 PW_GRID|   G-Rays                                  32.0          35          30
 PW_GRID|   Real Space Points                     2048.0        2048        2048

 POISSON| Solver                                                        PERIODIC
 POISSON| Periodicity                                                        XYZ

 RS_GRID| Information for grid number                                          1
 RS_GRID|   Bounds   1           -162     161                Points:         324
 RS_GRID|   Bounds   2            -81      80                Points:         162
 RS_GRID|   Bounds   3            -81      80                Points:         162
 RS_GRID| Real space distribution over                                  8 groups
 RS_GRID| Real space distribution along direction                              1
 RS_GRID| Border size                                                         29
 RS_GRID| Real space distribution over                                  4 groups
 RS_GRID| Real space distribution along direction                              3
 RS_GRID| Border size                                                         29
 RS_GRID|   Distribution                         Average         Max         Min
 RS_GRID|   Planes                                  98.5          99          98
 RS_GRID|   Distribution                         Average         Max         Min
 RS_GRID|   Planes                                  98.5          99          98

 RS_GRID| Information for grid number                                          2
 RS_GRID|   Bounds   1            -96      95                Points:         192
 RS_GRID|   Bounds   2            -48      47                Points:          96
 RS_GRID|   Bounds   3            -48      47                Points:          96
 RS_GRID| Real space distribution over                                  8 groups
 RS_GRID| Real space distribution along direction                              1
 RS_GRID| Border size                                                         26
 RS_GRID| Real space distribution over                                  4 groups
 RS_GRID| Real space distribution along direction                              3
 RS_GRID| Border size                                                         26
 RS_GRID|   Distribution                         Average         Max         Min
 RS_GRID|   Planes                                  76.0          76          76
 RS_GRID|   Distribution                         Average         Max         Min
 RS_GRID|   Planes                                  76.0          76          76

 RS_GRID| Information for grid number                                          3
 RS_GRID|   Bounds   1            -54      53                Points:         108
 RS_GRID|   Bounds   2            -27      26                Points:          54
 RS_GRID|   Bounds   3            -27      26                Points:          54
 RS_GRID| Real space fully replicated
 RS_GRID| Group size                                                           1

 RS_GRID| Information for grid number                                          4
 RS_GRID|   Bounds   1            -32      31                Points:          64
 RS_GRID|   Bounds   2            -16      15                Points:          32
 RS_GRID|   Bounds   3            -16      15                Points:          32
 RS_GRID| Real space fully replicated
 RS_GRID| Group size                                                           1

 *** WARNING in hfx_types.F:2091 :: Periodic Hartree Fock calculation   ***
 *** requested with the use of a truncated or shortrange potential. The ***
 *** cutoff radius is larger than half the minimal cell dimension. This ***
 *** may lead to unphysical total energies. Reduce the cutoff radius in ***
 *** order to avoid possible problems.                                  ***


  HFX_INFO| Replica ID:                                                        1
  HFX_INFO| FRACTION:                                               0.2500000000
  HFX_INFO| Interaction Potential:                                    SHORTRANGE
  HFX_INFO| Omega:                                                  0.1100000000
  HFX_INFO| Cutoff Radius [angstrom]:                              14.2786927855
  HFX_INFO| EPS_SCHWARZ:                                                 1.0E-06
  HFX_INFO| EPS_SCHWARZ_FORCES                                           1.0E-04
  HFX_INFO| EPS_STORAGE_SCALING:                                         1.0E+00
  HFX_INFO| NBINS:                                                            64
  HFX_INFO| BLOCK_SIZE:                                                        2
  HFX_INFO| NUMBER_OF_SHELLS:                                               AUTO
  HFX_INFO| Number of periodic shells considered:                             -1
  HFX_INFO| Number of periodic cells considered:                              75


 Number of electrons:                                                        512
 Number of occupied orbitals:                                                256
 Number of molecular orbitals:                                               256

 Number of orbital functions:                                               1664
 Number of independent orbital functions:                                   1664

 Extrapolation method: initial_guess

 Atomic guess: The first density matrix is obtained in terms of atomic orbitals
               and electronic configurations assigned to each atomic kind

 Guess for atomic kind: Si

 Electronic structure
    Total number of core electrons                                         10.00
    Total number of valence electrons                                       4.00
    Total number of electrons                                              14.00
    Multiplicity                                                   not specified
    S   [  2.00  2.00] 2.00
    P   [  6.00] 2.00
 

 *******************************************************************************
                  Iteration          Convergence                     Energy [au]
 *******************************************************************************
                          1        0.526541E-01                  -3.659692963728
                          2        0.125823E-01                  -3.661785675622
                          3        0.408986E-04                  -3.661911567360
                          4        0.675570E-07                  -3.661911568709

 Energy components [Hartree]           Total Energy ::           -3.661911568709
                                        Band Energy ::           -0.941881516273
                                     Kinetic Energy ::            1.409736465412
                                   Potential Energy ::           -5.071648034121
                                      Virial (-V/T) ::            3.597585902439
                                        Core Energy ::           -5.690149137281
                                          XC Energy ::           -0.992569238249
                                     Coulomb Energy ::            3.020806806821
                       Total Pseudopotential Energy ::           -7.143143335066
                       Local Pseudopotential Energy ::           -8.006124475851
                    Nonlocal Pseudopotential Energy ::            0.862981140786
                                        Confinement ::            0.432577323720

 Orbital energies  State     L     Occupation   Energy[a.u.]          Energy[eV]

                       1     0          2.000      -0.357276           -9.721984
 
                       1     1          2.000      -0.113664           -3.092965
 

 Total Electron Density at R=0:                                         0.000026
 Re-scaling the density matrix to get the right number of electrons
                  # Electrons              Trace(P)               Scaling factor
                          512               512.000                        1.000


 SCF WAVEFUNCTION OPTIMIZATION

  ----------------------------------- OT ---------------------------------------
  Minimizer      : DIIS                : direct inversion
                                         in the iterative subspace
                                         using   7 DIIS vectors
                                         safer DIIS on
  Preconditioner : FULL_SINGLE_INVERSE : inversion of 
                                         H + eS - 2*(Sc)(c^T*H*c+const)(Sc)^T
  Precond_solver : DEFAULT
  stepsize       :    0.08000000                  energy_gap     :    0.05000000
  eps_taylor     :   0.10000E-15                  max_taylor     :             4
  ----------------------------------- OT ---------------------------------------

  Step     Update method      Time    Convergence         Total energy    Change
  ------------------------------------------------------------------------------

  HFX_MEM_INFO| Est. max. program size before HFX [MiB]:                     528

 *** WARNING in hfx_energy_potential.F:587 :: The Kohn Sham matrix is not ***
 *** 100% occupied. This may result in incorrect Hartree-Fock results.    ***
 *** Setting MIN_PAIR_LIST_RADIUS to -1 in the QS section ensures a fully ***
 *** occupied KS matrix. For more information see FAQ:                    ***
 *** https://www.cp2k.org/faq:hfx_eps_warning                             ***

  HFX_MEM_INFO| Number of cart. primitive ERI's calculated:        3440418068104
  HFX_MEM_INFO| Number of sph. ERI's calculated:                    124422978560
  HFX_MEM_INFO| Number of sph. ERI's stored in-core:                124422978560
  HFX_MEM_INFO| Number of sph. ERI's stored on disk:                           0
  HFX_MEM_INFO| Number of sph. ERI's calculated on the fly:                    0
  HFX_MEM_INFO| Total memory consumption ERI's RAM [MiB]:                  94315
  HFX_MEM_INFO| Whereof max-vals [MiB]:                                     2192
  HFX_MEM_INFO| Total compression factor ERI's RAM:                        10.06
  HFX_MEM_INFO| Total memory consumption ERI's disk [MiB]:                     0
  HFX_MEM_INFO| Total compression factor ERI's disk:                        0.00
  HFX_MEM_INFO| Size of density/Fock matrix [MiB]:                            20
  HFX_MEM_INFO| Size of buffers [MiB]:                                         6
  HFX_MEM_INFO| Number of periodic image cells considered:                    75
  HFX_MEM_INFO| Est. max. program size after HFX  [MiB]:                    5717

     1 OT DIIS     0.80E-01  555.0     0.01817052      -479.1447079901 -4.79E+02
     2 OT DIIS     0.80E-01   27.0     0.02693884      -487.5755290510 -8.43E+00
     3 OT DIIS     0.80E-01   27.0     0.02569039      -489.3009868001 -1.73E+00
     4 OT DIIS     0.80E-01   27.0     0.01257233      -495.4992146490 -6.20E+00
     5 OT DIIS     0.80E-01   27.0     0.00747603      -500.4403990324 -4.94E+00
     6 OT DIIS     0.80E-01   26.9     0.00522982      -501.8458857877 -1.41E+00
     7 OT DIIS     0.80E-01   27.0     0.00589157      -502.4207995105 -5.75E-01
     8 OT DIIS     0.80E-01   26.9     0.00287755      -502.8490069631 -4.28E-01
     9 OT DIIS     0.80E-01   26.9     0.00195481      -503.1182693767 -2.69E-01
    10 OT DIIS     0.80E-01   27.0     0.00156587      -503.2903662464 -1.72E-01
    11 OT DIIS     0.80E-01   26.9     0.00123499      -503.3989912876 -1.09E-01
    12 OT DIIS     0.80E-01   27.0     0.00099164      -503.4850302143 -8.60E-02
    13 OT DIIS     0.80E-01   27.0     0.00075987      -503.5544835506 -6.95E-02
    14 OT DIIS     0.80E-01   27.0     0.00059863      -503.6027802077 -4.83E-02
    15 OT DIIS     0.80E-01   27.0     0.00050450      -503.6328872621 -3.01E-02
    16 OT DIIS     0.80E-01   26.9     0.00041734      -503.6556654030 -2.28E-02
    17 OT DIIS     0.80E-01   26.9     0.00038944      -503.6713326237 -1.57E-02
    18 OT DIIS     0.80E-01   27.0     0.00035179      -503.6829852497 -1.17E-02
    19 OT DIIS     0.80E-01   27.0     0.00033878      -503.6904969651 -7.51E-03
    20 OT DIIS     0.80E-01   27.0     0.00033305      -503.6998814436 -9.38E-03
    21 OT DIIS     0.80E-01   26.9     0.00032660      -503.7066277071 -6.75E-03
    22 OT DIIS     0.80E-01   27.0     0.00032457      -503.7134579599 -6.83E-03
    23 OT DIIS     0.80E-01   27.0     0.00031893      -503.7206227081 -7.16E-03
    24 OT DIIS     0.80E-01   27.0     0.00030565      -503.7314781078 -1.09E-02
    25 OT DIIS     0.80E-01   27.0     0.00029048      -503.7434221071 -1.19E-02
    26 OT DIIS     0.80E-01   26.9     0.00024453      -503.7567685105 -1.33E-02
    27 OT DIIS     0.80E-01   26.9     0.00026428      -503.7566970739  7.14E-05
    28 OT DIIS     0.80E-01   27.0     0.00019580      -503.7693460252 -1.26E-02
    29 OT DIIS     0.80E-01   26.9     0.00022004      -503.7684107243  9.35E-04
    30 OT DIIS     0.80E-01   26.9     0.00015297      -503.7748359990 -6.43E-03
    31 OT DIIS     0.80E-01   27.0     0.00013253      -503.7783288822 -3.49E-03
    32 OT DIIS     0.80E-01   27.0     0.00013504      -503.7794927433 -1.16E-03
    33 OT DIIS     0.80E-01   27.0     0.00010381      -503.7816740338 -2.18E-03
    34 OT DIIS     0.80E-01   27.0     0.00013574      -503.7821678750 -4.94E-04
    35 OT DIIS     0.80E-01   27.0     0.00007674      -503.7844568934 -2.29E-03
    36 OT DIIS     0.80E-01   27.0     0.00006803      -503.7853319768 -8.75E-04
    37 OT DIIS     0.80E-01   27.0     0.00005838      -503.7862693732 -9.37E-04
    38 OT DIIS     0.80E-01   26.9     0.00005131      -503.7868863984 -6.17E-04
    39 OT DIIS     0.80E-01   26.9     0.00004774      -503.7872677294 -3.81E-04
    40 OT DIIS     0.80E-01   27.0     0.00004289      -503.7877106052 -4.43E-04
    41 OT DIIS     0.80E-01   27.0     0.00003964      -503.7879993165 -2.89E-04
    42 OT DIIS     0.80E-01   27.0     0.00003704      -503.7883424502 -3.43E-04
    43 OT DIIS     0.80E-01   27.0     0.00003356      -503.7886183836 -2.76E-04
    44 OT DIIS     0.80E-01   27.0     0.00003109      -503.7888331732 -2.15E-04
    45 OT DIIS     0.80E-01   27.0     0.00002932      -503.7890252038 -1.92E-04
    46 OT DIIS     0.80E-01   27.0     0.00002754      -503.7892047623 -1.80E-04
    47 OT DIIS     0.80E-01   27.0     0.00002584      -503.7893914818 -1.87E-04
    48 OT DIIS     0.80E-01   26.9     0.00002383      -503.7895921793 -2.01E-04
    49 OT DIIS     0.80E-01   26.9     0.00002251      -503.7897251153 -1.33E-04
    50 OT DIIS     0.80E-01   27.0     0.00002111      -503.7898750458 -1.50E-04

  Leaving inner SCF loop after reaching    50 steps.


  Electronic density on regular grids:       -512.0000000000        0.0000000000
  Core density on regular grids:              511.9999999990       -0.0000000010
  Total charge density on r-space grids:       -0.0000000010
  Total charge density g-space grids:          -0.0000000010

  Overlap energy of the core charge distribution:               0.00000000084862
  Self energy of the core charge distribution:              -1313.02303080205115
  Core Hamiltonian energy:                                    277.19656679313209
  Hartree energy:                                             686.68896952706245
  Exchange-correlation energy:                               -128.05780789818070
  Hartree-Fock Exchange energy:                               -26.59457266663786

  Total energy:                                              -503.78987504582670

  outer SCF iter =    1 RMS gradient =   0.21E-04 energy =       -503.7898750458

  ----------------------------------- OT ---------------------------------------
  Minimizer      : DIIS                : direct inversion
                                         in the iterative subspace
                                         using   7 DIIS vectors
                                         safer DIIS on
  Preconditioner : FULL_SINGLE_INVERSE : inversion of 
                                         H + eS - 2*(Sc)(c^T*H*c+const)(Sc)^T
  Precond_solver : DEFAULT
  stepsize       :    0.08000000                  energy_gap     :    0.05000000
  eps_taylor     :   0.10000E-15                  max_taylor     :             4
  ----------------------------------- OT ---------------------------------------

  Step     Update method      Time    Convergence         Total energy    Change
  ------------------------------------------------------------------------------
     1 OT DIIS     0.80E-01   54.1     0.00010024      -503.7899899681 -1.15E-04
     2 OT DIIS     0.80E-01   26.9     0.00008111      -503.7902987705 -3.09E-04
     3 OT DIIS     0.80E-01   26.9     0.00003359      -503.7908754172 -5.77E-04
     4 OT DIIS     0.80E-01   27.0     0.00002432      -503.7909193186 -4.39E-05
     5 OT DIIS     0.80E-01   26.9     0.00001485      -503.7909686610 -4.93E-05
     6 OT DIIS     0.80E-01   27.0     0.00001026      -503.7909884272 -1.98E-05
     7 OT DIIS     0.80E-01   26.9     0.00000683      -503.7909996678 -1.12E-05
     8 OT DIIS     0.80E-01   27.2     0.00000482      -503.7910044459 -4.78E-06
     9 OT DIIS     0.80E-01   26.9     0.00000313      -503.7910072883 -2.84E-06
    10 OT DIIS     0.80E-01   27.0     0.00000223      -503.7910083058 -1.02E-06
    11 OT DIIS     0.80E-01   27.0     0.00000163      -503.7910087366 -4.31E-07
    12 OT DIIS     0.80E-01   27.0     0.00000114      -503.7910089680 -2.31E-07
    13 OT DIIS     0.80E-01   27.0     0.00000084      -503.7910090745 -1.07E-07

  *** SCF run converged in    13 steps ***


  Electronic density on regular grids:       -512.0000000001       -0.0000000001
  Core density on regular grids:              511.9999999990       -0.0000000010
  Total charge density on r-space grids:       -0.0000000011
  Total charge density g-space grids:          -0.0000000011

  Overlap energy of the core charge distribution:               0.00000000084862
  Self energy of the core charge distribution:              -1313.02303080205115
  Core Hamiltonian energy:                                    277.19646430989150
  Hartree energy:                                             686.68880517605089
  Exchange-correlation energy:                               -128.05822306595482
  Hartree-Fock Exchange energy:                               -26.59502469333395

  Total energy:                                              -503.79100907454892

  outer SCF iter =    2 RMS gradient =   0.84E-06 energy =       -503.7910090745
  outer SCF loop converged in   2 iterations or   63 steps


 !-----------------------------------------------------------------------------!
                     Mulliken Population Analysis

 #  Atom  Element  Kind  Atomic population                           Net charge
       1     Si       1          4.000000                              0.000000
       2     Si       1          3.999998                              0.000002
       3     Si       1          4.000004                             -0.000004
       4     Si       1          3.999999                              0.000001
       5     Si       1          3.999990                              0.000010
       6     Si       1          3.999995                              0.000005
       7     Si       1          3.999998                              0.000002
       8     Si       1          4.000005                             -0.000005
       9     Si       1          3.999998                              0.000002
      10     Si       1          3.999998                              0.000002
      11     Si       1          4.000001                             -0.000001
      12     Si       1          4.000004                             -0.000004
      13     Si       1          3.999990                              0.000010
      14     Si       1          3.999996                              0.000004
      15     Si       1          4.000003                             -0.000003
      16     Si       1          3.999999                              0.000001
      17     Si       1          3.999999                              0.000001
      18     Si       1          3.999999                              0.000001
      19     Si       1          3.999998                              0.000002
      20     Si       1          4.000003                             -0.000003
      21     Si       1          3.999993                              0.000007
      22     Si       1          3.999997                              0.000003
      23     Si       1          4.000007                             -0.000007
      24     Si       1          4.000004                             -0.000004
      25     Si       1          4.000002                             -0.000002
      26     Si       1          4.000000                              0.000000
      27     Si       1          4.000004                             -0.000004
      28     Si       1          4.000000                              0.000000
      29     Si       1          3.999989                              0.000011
      30     Si       1          3.999995                              0.000005
      31     Si       1          4.000001                             -0.000001
      32     Si       1          4.000008                             -0.000008
      33     Si       1          3.999998                              0.000002
      34     Si       1          3.999995                              0.000005
      35     Si       1          3.999996                              0.000004
      36     Si       1          4.000004                             -0.000004
      37     Si       1          4.000001                             -0.000001
      38     Si       1          4.000003                             -0.000003
      39     Si       1          3.999997                              0.000003
      40     Si       1          3.999995                              0.000005
      41     Si       1          4.000000                             -0.000000
      42     Si       1          3.999997                              0.000003
      43     Si       1          4.000000                             -0.000000
      44     Si       1          3.999998                              0.000002
      45     Si       1          4.000000                              0.000000
      46     Si       1          3.999998                              0.000002
      47     Si       1          3.999991                              0.000009
      48     Si       1          3.999998                              0.000002
      49     Si       1          3.999998                              0.000002
      50     Si       1          3.999997                              0.000003
      51     Si       1          3.999999                              0.000001
      52     Si       1          3.999998                              0.000002
      53     Si       1          4.000001                             -0.000001
      54     Si       1          4.000001                             -0.000001
      55     Si       1          3.999992                              0.000008
      56     Si       1          4.000000                              0.000000
      57     Si       1          3.999996                              0.000004
      58     Si       1          3.999996                              0.000004
      59     Si       1          3.999997                              0.000003
      60     Si       1          4.000003                             -0.000003
      61     Si       1          4.000000                             -0.000000
      62     Si       1          4.000003                             -0.000003
      63     Si       1          3.999998                              0.000002
      64     Si       1          3.999997                              0.000003
      65     Si       1          4.000002                             -0.000002
      66     Si       1          4.000002                             -0.000002
      67     Si       1          4.000000                             -0.000000
      68     Si       1          3.999997                              0.000003
      69     Si       1          4.000000                             -0.000000
      70     Si       1          3.999999                              0.000001
      71     Si       1          3.999998                              0.000002
      72     Si       1          4.000002                             -0.000002
      73     Si       1          4.000002                             -0.000002
      74     Si       1          4.000002                             -0.000002
      75     Si       1          3.999995                              0.000005
      76     Si       1          4.000001                             -0.000001
      77     Si       1          4.000000                             -0.000000
      78     Si       1          4.000000                             -0.000000
      79     Si       1          4.000001                             -0.000001
      80     Si       1          3.999999                              0.000001
      81     Si       1          4.000000                              0.000000
      82     Si       1          4.000003                             -0.000003
      83     Si       1          3.999993                              0.000007
      84     Si       1          4.000001                             -0.000001
      85     Si       1          4.000003                             -0.000003
      86     Si       1          4.000001                             -0.000001
      87     Si       1          4.000004                             -0.000004
      88     Si       1          4.000001                             -0.000001
      89     Si       1          4.000005                             -0.000005
      90     Si       1          4.000005                             -0.000005
      91     Si       1          4.000000                             -0.000000
      92     Si       1          3.999998                              0.000002
      93     Si       1          3.999998                              0.000002
      94     Si       1          4.000001                             -0.000001
      95     Si       1          4.000000                              0.000000
      96     Si       1          4.000006                             -0.000006
      97     Si       1          4.000003                             -0.000003
      98     Si       1          4.000002                             -0.000002
      99     Si       1          3.999994                              0.000006
     100     Si       1          3.999999                              0.000001
     101     Si       1          4.000000                              0.000000
     102     Si       1          3.999999                              0.000001
     103     Si       1          4.000007                             -0.000007
     104     Si       1          4.000003                             -0.000003
     105     Si       1          4.000002                             -0.000002
     106     Si       1          4.000007                             -0.000007
     107     Si       1          3.999996                              0.000004
     108     Si       1          3.999996                              0.000004
     109     Si       1          4.000000                              0.000000
     110     Si       1          4.000000                             -0.000000
     111     Si       1          4.000003                             -0.000003
     112     Si       1          4.000007                             -0.000007
     113     Si       1          4.000005                             -0.000005
     114     Si       1          4.000006                             -0.000006
     115     Si       1          3.999997                              0.000003
     116     Si       1          3.999996                              0.000004
     117     Si       1          4.000000                              0.000000
     118     Si       1          4.000002                             -0.000002
     119     Si       1          4.000007                             -0.000007
     120     Si       1          4.000010                             -0.000010
     121     Si       1          4.000007                             -0.000007
     122     Si       1          4.000007                             -0.000007
     123     Si       1          3.999993                              0.000007
     124     Si       1          3.999999                              0.000001
     125     Si       1          3.999997                              0.000003
     126     Si       1          4.000001                             -0.000001
     127     Si       1          4.000010                             -0.000010
     128     Si       1          4.000007                             -0.000007
 # Total charge                            512.000000                 -0.000000

 !-----------------------------------------------------------------------------!

 !-----------------------------------------------------------------------------!
                           Hirshfeld Charges

  #Atom  Element  Kind  Ref Charge     Population                    Net charge
      1       Si     1       4.000          4.000                        -0.000
      2       Si     1       4.000          4.000                        -0.000
      3       Si     1       4.000          4.000                        -0.000
      4       Si     1       4.000          4.000                         0.000
      5       Si     1       4.000          4.000                         0.000
      6       Si     1       4.000          4.000                         0.000
      7       Si     1       4.000          4.000                        -0.000
      8       Si     1       4.000          4.000                        -0.000
      9       Si     1       4.000          4.000                         0.000
     10       Si     1       4.000          4.000                         0.000
     11       Si     1       4.000          4.000                        -0.000
     12       Si     1       4.000          4.000                        -0.000
     13       Si     1       4.000          4.000                         0.000
     14       Si     1       4.000          4.000                         0.000
     15       Si     1       4.000          4.000                        -0.000
     16       Si     1       4.000          4.000                        -0.000
     17       Si     1       4.000          4.000                        -0.000
     18       Si     1       4.000          4.000                         0.000
     19       Si     1       4.000          4.000                         0.000
     20       Si     1       4.000          4.000                        -0.000
     21       Si     1       4.000          4.000                         0.000
     22       Si     1       4.000          4.000                         0.000
     23       Si     1       4.000          4.000                        -0.000
     24       Si     1       4.000          4.000                        -0.000
     25       Si     1       4.000          4.000                        -0.000
     26       Si     1       4.000          4.000                        -0.000
     27       Si     1       4.000          4.000                        -0.000
     28       Si     1       4.000          4.000                        -0.000
     29       Si     1       4.000          4.000                         0.000
     30       Si     1       4.000          4.000                         0.000
     31       Si     1       4.000          4.000                        -0.000
     32       Si     1       4.000          4.000                        -0.000
     33       Si     1       4.000          4.000                         0.000
     34       Si     1       4.000          4.000                         0.000
     35       Si     1       4.000          4.000                         0.000
     36       Si     1       4.000          4.000                        -0.000
     37       Si     1       4.000          4.000                         0.000
     38       Si     1       4.000          4.000                        -0.000
     39       Si     1       4.000          4.000                         0.000
     40       Si     1       4.000          4.000                         0.000
     41       Si     1       4.000          4.000                         0.000
     42       Si     1       4.000          4.000                         0.000
     43       Si     1       4.000          4.000                        -0.000
     44       Si     1       4.000          4.000                         0.000
     45       Si     1       4.000          4.000                         0.000
     46       Si     1       4.000          4.000                         0.000
     47       Si     1       4.000          4.000                         0.000
     48       Si     1       4.000          4.000                         0.000
     49       Si     1       4.000          4.000                         0.000
     50       Si     1       4.000          4.000                         0.000
     51       Si     1       4.000          4.000                         0.000
     52       Si     1       4.000          4.000                         0.000
     53       Si     1       4.000          4.000                        -0.000
     54       Si     1       4.000          4.000                        -0.000
     55       Si     1       4.000          4.000                         0.000
     56       Si     1       4.000          4.000                        -0.000
     57       Si     1       4.000          4.000                         0.000
     58       Si     1       4.000          4.000                         0.000
     59       Si     1       4.000          4.000                         0.000
     60       Si     1       4.000          4.000                        -0.000
     61       Si     1       4.000          4.000                        -0.000
     62       Si     1       4.000          4.000                        -0.000
     63       Si     1       4.000          4.000                         0.000
     64       Si     1       4.000          4.000                         0.000
     65       Si     1       4.000          4.000                        -0.000
     66       Si     1       4.000          4.000                        -0.000
     67       Si     1       4.000          4.000                        -0.000
     68       Si     1       4.000          4.000                         0.000
     69       Si     1       4.000          4.000                         0.000
     70       Si     1       4.000          4.000                         0.000
     71       Si     1       4.000          4.000                         0.000
     72       Si     1       4.000          4.000                        -0.000
     73       Si     1       4.000          4.000                        -0.000
     74       Si     1       4.000          4.000                        -0.000
     75       Si     1       4.000          4.000                         0.000
     76       Si     1       4.000          4.000                        -0.000
     77       Si     1       4.000          4.000                         0.000
     78       Si     1       4.000          4.000                         0.000
     79       Si     1       4.000          4.000                        -0.000
     80       Si     1       4.000          4.000                        -0.000
     81       Si     1       4.000          4.000                         0.000
     82       Si     1       4.000          4.000                        -0.000
     83       Si     1       4.000          4.000                         0.000
     84       Si     1       4.000          4.000                        -0.000
     85       Si     1       4.000          4.000                        -0.000
     86       Si     1       4.000          4.000                        -0.000
     87       Si     1       4.000          4.000                        -0.000
     88       Si     1       4.000          4.000                        -0.000
     89       Si     1       4.000          4.000                        -0.000
     90       Si     1       4.000          4.000                        -0.000
     91       Si     1       4.000          4.000                         0.000
     92       Si     1       4.000          4.000                         0.000
     93       Si     1       4.000          4.000                         0.000
     94       Si     1       4.000          4.000                         0.000
     95       Si     1       4.000          4.000                        -0.000
     96       Si     1       4.000          4.000                        -0.000
     97       Si     1       4.000          4.000                        -0.000
     98       Si     1       4.000          4.000                        -0.000
     99       Si     1       4.000          4.000                         0.000
    100       Si     1       4.000          4.000                         0.000
    101       Si     1       4.000          4.000                         0.000
    102       Si     1       4.000          4.000                        -0.000
    103       Si     1       4.000          4.000                        -0.000
    104       Si     1       4.000          4.000                        -0.000
    105       Si     1       4.000          4.000                        -0.000
    106       Si     1       4.000          4.000                        -0.000
    107       Si     1       4.000          4.000                         0.000
    108       Si     1       4.000          4.000                         0.000
    109       Si     1       4.000          4.000                         0.000
    110       Si     1       4.000          4.000                        -0.000
    111       Si     1       4.000          4.000                        -0.000
    112       Si     1       4.000          4.000                        -0.000
    113       Si     1       4.000          4.000                        -0.000
    114       Si     1       4.000          4.000                        -0.000
    115       Si     1       4.000          4.000                         0.000
    116       Si     1       4.000          4.000                         0.000
    117       Si     1       4.000          4.000                         0.000
    118       Si     1       4.000          4.000                        -0.000
    119       Si     1       4.000          4.000                        -0.000
    120       Si     1       4.000          4.000                        -0.000
    121       Si     1       4.000          4.000                        -0.000
    122       Si     1       4.000          4.000                        -0.000
    123       Si     1       4.000          4.000                         0.000
    124       Si     1       4.000          4.000                         0.000
    125       Si     1       4.000          4.000                         0.000
    126       Si     1       4.000          4.000                        -0.000
    127       Si     1       4.000          4.000                        -0.000
    128       Si     1       4.000          4.000                        -0.000

  Total Charge                                                           -0.000
 !-----------------------------------------------------------------------------!

 ENERGY| Total FORCE_EVAL ( QS ) energy [a.u.]:             -503.791009074548924

 -------------------------------------------------------------------------------
 -                                                                             -
 -                                DBCSR STATISTICS                             -
 -                                                                             -
 -------------------------------------------------------------------------------
 COUNTER                                    TOTAL       BLAS       SMM       ACC
 flops    32 x    32 x   208            245366784       0.0%    100.0%      0.0%     
 flops    13 x    32 x    32            490733568       0.0%    100.0%      0.0%     
 flops    64 x    32 x    32          17381195776       0.0%    100.0%      0.0%     
 flops    64 x    32 x   208          54525952000       0.0%    100.0%      0.0%     
 flops   416 x    32 x    32          67830284288       0.0%    100.0%      0.0%     
 flops    13 x    13 x    32          91805515776       0.0%    100.0%      0.0%     
 flops   416 x    32 x   208          92148858880       0.0%    100.0%      0.0%     
 flops    13 x    32 x    13         192803766272       0.0%    100.0%      0.0%     
 flops inhomo. stacks                           0       0.0%      0.0%      0.0%
 flops total                       517.231673E+09       0.0%    100.0%      0.0%
 flops max/rank                     16.314301E+09       0.0%    100.0%      0.0%
 matmuls inhomo. stacks                         0       0.0%      0.0%      0.0%
 matmuls total                           26625600       0.0%    100.0%      0.0%
 number of processed stacks                361696       0.0%    100.0%      0.0%
 average stack size                                     0.0      73.6       0.0
 marketing flops                   609.314931E+09
 -------------------------------------------------------------------------------
 # multiplications                           1417
 max memory usage/rank               6.271660E+09
 # max total images/rank                        2
 # max 3D layers                                1
 # MPI messages exchanged                  589472
 MPI messages size (bytes):
  total size                        56.928502E+09
  min size                           0.000000E+00
  max size                         692.224000E+03
  average size                      96.575414E+03
 MPI breakdown and total messages size (bytes):
             size <=      128                1168                        0
       128 < size <=     8192              159600               1307443200
      8192 < size <=    32768              116032               1901068288
     32768 < size <=   131072              267648              22553296896
    131072 < size <=  4194304               45024              31166693376
   4194304 < size <= 16777216                   0                        0
  16777216 < size                               0                        0
 -------------------------------------------------------------------------------

 *** WARNING in dbcsr_mm.F:301 :: Using a non-square number of MPI ranks ***
 *** might lead to poor performance. Used ranks: 32 Suggested: 36 64     ***

 -------------------------------------------------------------------------------
 -                                                                             -
 -                      DBCSR MESSAGE PASSING PERFORMANCE                      -
 -                                                                             -
 -------------------------------------------------------------------------------
 ROUTINE             CALLS      AVE VOLUME [Bytes]
 MP_Bcast                9                     12.
 MP_Allreduce         7985                     20.
 MP_Alltoall          9823                  84628.
 MP_ISend            44160                  42915.
 MP_IRecv            44164                  42962.
 -------------------------------------------------------------------------------

 -------------------------------------------------------------------------------
 -                                                                             -
 -                                DBM STATISTICS                               -
 -                                                                             -
 -------------------------------------------------------------------------------
    M  x    N  x    K                                          COUNT     PERCENT
 -------------------------------------------------------------------------------

 -------------------------------------------------------------------------------
 -                                                                             -
 -                                GRID STATISTICS                              -
 -                                                                             -
 -------------------------------------------------------------------------------
 LP    KERNEL             BACKEND                              COUNT     PERCENT
 4     collocate ortho    CPU                                9974784      14.76%
 4     integrate ortho    CPU                                9821952      14.53%
 1     collocate ortho    CPU                                9692928      14.34%
 1     integrate ortho    CPU                                9692928      14.34%
 2     collocate ortho    CPU                                7499520      11.10%
 2     integrate ortho    CPU                                7499520      11.10%
 0     collocate ortho    CPU                                4322304       6.40%
 0     integrate ortho    CPU                                4322304       6.40%
 3     collocate ortho    CPU                                2370816       3.51%
 3     integrate ortho    CPU                                2370816       3.51%
 0     collocate general  CPU                                   8192       0.01%
 0     integrate general  CPU                                   4096       0.01%
 -------------------------------------------------------------------------------

 MEMORY| Estimated peak process memory [MiB]                                5983

 -------------------------------------------------------------------------------
 ----                             MULTIGRID INFO                            ----
 -------------------------------------------------------------------------------
 count for grid        1:           1536          cutoff [a.u.]          300.00
 count for grid        2:         131200          cutoff [a.u.]          100.00
 count for grid        3:         212992          cutoff [a.u.]           33.33
 count for grid        4:         249344          cutoff [a.u.]           11.11
 total gridlevel count  :         595072

 -------------------------------------------------------------------------------
 -                                                                             -
 -                         MESSAGE PASSING PERFORMANCE                         -
 -                                                                             -
 -------------------------------------------------------------------------------

 ROUTINE             CALLS      AVE VOLUME [Bytes]
 MP_Group                4
 MP_Bcast             4012                  88255.
 MP_Allreduce        10864                    388.
 MP_Sync               372
 MP_Alltoall          2366               10111405.
 MP_SendRecv          7874                  54848.
 MP_ISendRecv        11780                 157418.
 MP_Wait             18897
 MP_ISend             5084                 858379.
 MP_IRecv             5084                 858347.
 -------------------------------------------------------------------------------


 -------------------------------------------------------------------------------
 -                                                                             -
 -                           R E F E R E N C E S                               -
 -                                                                             -
 -------------------------------------------------------------------------------
 
 CP2K version 2024.3, the CP2K developers group (2024).
 CP2K is freely available from https://www.cp2k.org/ .
 
 T. D. Kuehne, M. Iannuzzi, M. Del Ben, V. V. Rybkin, P. Seewald, F. Stein, T. 
 Laino, R. Z. Khaliullin, O. Schuett, F. Schiffmann, D. Golze, J. Wilhelm, S. 
 Chulkov, M. H. Bani-Hashemian, V. Weber, U. Borstnik, M. Taillefumier, A. S. 
 Jakobovits, A. Lazzaro, H. Pabst, T. Mueller, R. Schade, M. Guidon, S. 
 Andermatt, N. Holmberg, G. K. Schenter, A. Hehn, A. Bussy, F. Belleflamme, G. 
 Tabacchi, A. Gloess, M. Lass, I. Bethune, C. J. Mundy, C. Plessl, M. Watkins, 
 J. VandeVondele, M. Krack, J. Hutter.
 J. Chem. Phys. 152, 194103 (2020).
 CP2K: An electronic structure and molecular dynamics software package - 
 Quickstep: Efficient and accurate electronic structure calculations.
 https://doi.org/10.1063/5.0007045

 O. Schuett, P. Messmer, J. Hutter, J. VandeVondele.
 Electronic Structure Calculations on Graphics Processing Units, 173-190 (2016).
 GPU-Accelerated Sparse Matrix-Matrix Multiplication for Linear Scaling Density 
 Functional Theory.
 https://doi.org/10.1002/9781118670712.ch8

 A. Heinecke, G. Henry, M. Hutchinson, H. Pabst.
 Proceedings of Intl. Supercomputing Conference, 981-991 (2016).
 LIBXSMM: Accelerating Small Matrix Multiplications by Runtime Code Generation.
 https://doi.org/10.1109/SC.2016.83

 J. Hutter, M. Iannuzzi, F. Schiffmann, J. VandeVondele.
 WIREs Comput Mol Sci. 4, 15-25 (2014).
 CP2K: atomistic simulations of condensed matter systems.
 https://doi.org/10.1002/wcms.1159

 U. Borstnik, J. VandeVondele, V. Weber, J. Hutter.
 Parallel Comput. 40, 47-58 (2014).
 Sparse matrix multiplication: The distributed block-compressed sparse row 
 library.
 https://doi.org/10.1016/j.parco.2014.03.012

 P. Merlot, R. Izsak, A. Borgo, T. Kjaergaard, T. Helgaker, S. Reine.
 J. Chem. Phys. 141, 094104 (2014).
 Charge-constrained auxiliary-density-matrix methods for the Hartree-Fock 
 exchange contribution.
 https://doi.org/10.1063/1.4894267

 A. Marek, V. Blum, R. Johanni, V. Havu, B. Lang, T. Auckenthaler, A. Heinecke, 
 H. Bungartz, H. Lederer.
 J. Phys. Condens. Matter 26, 213201 (2014).
 The ELPA library: scalable parallel eigenvalue solutions for electronic 
 structure theory and computational science.
 https://doi.org/10.1088/0953-8984/26/21/213201

 M. Guidon, J. Hutter, J. VandeVondele.
 J. Chem. Theory Comput. 6, 2348-2364 (2010).
 Auxiliary Density Matrix Methods for Hartree-Fock Exchange Calculations.
 https://doi.org/10.1021/ct1002225

 M. Guidon, J. Hutter, J. VandeVondele.
 J. Chem. Theory Comput. 5, 3010-3021 (2009).
 Robust Periodic Hartree-Fock Exchange for Large-Scale Simulations Using 
 Gaussian Basis Sets.
 https://doi.org/10.1021/ct900494g

 M. Guidon, F. Schiffmann, J. Hutter, J. VandeVondele.
 J. Chem. Phys. 128, 214104 (2008).
 Ab initio molecular dynamics using hybrid density functionals.
 https://doi.org/10.1063/1.2931945

 J. VandeVondele, J. Hutter.
 J. Chem. Phys. 127, 114105 (2007).
 Gaussian basis sets for accurate calculations on molecular systems in gas and 
 condensed phases.
 https://doi.org/10.1063/1.2770708

 J. VandeVondele, M. Krack, F. Mohamed, M. Parrinello, T. Chassaing, J. Hutter.
 Comput. Phys. Commun. 167, 103-128 (2005).
 QUICKSTEP: Fast and accurate density functional calculations using a mixed 
 Gaussian and plane waves approach.
 https://doi.org/10.1016/j.cpc.2004.12.014

 M. Krack.
 Theor. Chem. Acc. 114, 145-152 (2005).
 Pseudopotentials for H to Kr optimized for gradient-corrected 
 exchange-correlation functionals.
 https://doi.org/10.1007/s00214-005-0655-y

 M. Frigo, S. G. Johnson.
 Proc. IEEE 93, 216-231 (2005).
 The design and implementation of FFTW3.
 https://doi.org/10.1109/JPROC.2004.840301

 J. Heyd, G. E. Scuseria.
 J. Chem. Phys. 120, 7274-7280 (2004).
 Assessment and validation of a screened Coulomb hybrid density functional.
 https://doi.org/10.1063/1.1668634

 J. VandeVondele, J. Hutter.
 J. Chem. Phys. 118, 4365-4369 (2003).
 An efficient orbital transformation method for electronic structure 
 calculations.
 https://doi.org/10.1063/1.1543154

 C. Hartwigsen, S. Goedecker, J. Hutter.
 Phys. Rev. B 58, 3641-3662 (1998).
 Relativistic separable dual-space Gaussian pseudopotentials from H to Rn.
 https://doi.org/10.1103/PhysRevB.58.3641

 G. Lippert, J. Hutter, M. Parrinello.
 Mol. Phys. 92, 477-487 (1997).
 A hybrid Gaussian and plane wave density functional scheme.
 https://doi.org/10.1080/002689797170220

 S. Goedecker, M. Teter, J. Hutter.
 Phys. Rev. B 54, 1703-1710 (1996).
 Separable dual-space Gaussian pseudopotentials.
 https://doi.org/10.1103/PhysRevB.54.1703

 J. P. Perdew, K. Burke, M. Ernzerhof.
 Phys. Rev. Lett. 77, 3865-3868 (1996).
 Generalized gradient approximation made simple.
 https://doi.org/10.1103/PhysRevLett.77.3865


 -------------------------------------------------------------------------------
 -                                                                             -
 -                                T I M I N G                                  -
 -                                                                             -
 -------------------------------------------------------------------------------
 SUBROUTINE                       CALLS  ASD         SELF TIME        TOTAL TIME
                                MAXIMUM       AVERAGE  MAXIMUM  AVERAGE  MAXIMUM
 CP2K                                 1  1.0    0.448    0.476 2228.593 2228.596
 qs_energies                          1  2.0    0.000    0.000 2227.963 2227.966
 scf_env_do_scf                       1  3.0    0.000    0.001 2227.272 2227.274
 qs_ks_update_qs_env                 65  5.0    0.000    0.000 2215.441 2215.443
 rebuild_ks_matrix                   63  6.0    0.000    0.000 2215.429 2215.431
 qs_ks_build_kohn_sham_matrix        63  7.0    0.007    0.007 2215.429 2215.430
 hfx_ks_matrix                       63  8.0    0.002    0.002 2144.640 2144.648
 integrate_four_center               63  9.0    0.175    0.247 2144.619 2144.630
 integrate_four_center_main          63 10.0    0.011    0.013 2100.703 2114.996
 integrate_four_center_bin         4032 11.0 2100.692 2114.985 2100.692 2114.985
 scf_env_do_scf_inner_loop           63  4.0    0.001    0.009 1645.394 1645.395
 init_scf_loop                        2  4.0    0.000    0.000  581.877  581.878
 -------------------------------------------------------------------------------

 The number of warnings for this run is : 3
 
 -------------------------------------------------------------------------------
  **** **** ******  **  PROGRAM ENDED AT                 2026-09-30 22:09:19.801
 ***** ** ***  *** **   PROGRAM RAN ON                                      cu06
 **    ****   ******    PROGRAM RAN BY                                     rudin
 ***** **    ** ** **   PROGRAM PROCESS ID                                490312
  **** **  *******  **  PROGRAM STOPPED IN /home/rudin/tmp-review-cp2k/4c-admm/S
                                           i128
WALLCLOCK 4c-admm/Si128/cp2k.inp 2229.88 s  MAXRSS(rank0) 8072 kB
