 DBCSR| CPU Multiplication driver                                           XSMM (U)
 DBCSR| Multrec recursion limit                                              512 (U)
 DBCSR| Multiplication stack size                                           1000 (D)
 DBCSR| Maximum elements for images                                    UNLIMITED (U)
 DBCSR| Multiplicative factor virtual images                                   1 (U)
 DBCSR| Use multiplication densification                                       T (D)
 DBCSR| Multiplication size stacks                                             3 (U)
 DBCSR| Use memory pool for CPU allocation                                     F (U)
 DBCSR| Number of 3D layers                                               SINGLE (U)
 DBCSR| Use MPI memory allocation                                              F (U)
 DBCSR| Use RMA algorithm                                                      F (U)
 DBCSR| Use Communication thread                                               T (U)
 DBCSR| Communication thread load                                             87 (D)
 DBCSR| MPI: My process id                                                     0
 DBCSR| MPI: Number of processes                                              32
 DBCSR| OMP: Current number of threads                                         1
 DBCSR| OMP: Max number of threads                                             1
 DBCSR| Split modifier for TAS multiplication algorithm                  1.0E+00 (U)


  **** **** ******  **  PROGRAM STARTED AT               2026-09-30 22:29:52.054
 ***** ** ***  *** **   PROGRAM STARTED ON                                  cu06
 **    ****   ******    PROGRAM STARTED BY                                 rudin
 ***** **    ** ** **   PROGRAM PROCESS ID                                490851
  **** **  *******  **  PROGRAM STARTED IN /home/rudin/tmp-review-cp2k/4c-admm-p
                                           be/Si64

 CP2K| version string:                                       CP2K version 2024.3
 CP2K| source code revision number:                                  git:6712648
 CP2K| cp2kflags: omp libint fftw3 libxc libgrpp elpa parallel scalapack mpi_f08
 CP2K|             cosma xsmm plumed2 spglib mkl libvori libbqb
 CP2K| is freely available from                            https://www.cp2k.org/
 CP2K| Program compiled at            2026年 01月 07日 星期三 01:43:54 CST
 CP2K| Program compiled on                                                  mu01
 CP2K| Program compiled for                                                local
 CP2K| Data directory path    /software/Applications/cp2k/cp2k-2024.3-oneapi-202
 CP2K| Input file name                                                   pbe.inp
 
 GLOBAL| Force Environment number                                              1
 GLOBAL| Basis set file name                                        BASIS_MOLOPT
 GLOBAL| Potential file name                                      GTH_POTENTIALS
 GLOBAL| MM Potential file name                                     MM_POTENTIAL
 GLOBAL| Coordinate file name                                      __STD_INPUT__
 GLOBAL| Method name                                                        CP2K
 GLOBAL| Project name                                                   Si64-PBE
 GLOBAL| Run type                                                         ENERGY
 GLOBAL| FFT library                                                       FFTW3
 GLOBAL| Diagonalization library                                            ELPA
 GLOBAL| DGEMM library                                                      BLAS
 GLOBAL| Minimum number of eigenvectors for ELPA usage                        16
 GLOBAL| Orthonormality check for eigenvectors                          DISABLED
 GLOBAL| Matrix multiplication library                                     COSMA
 GLOBAL| All-to-all communication in single precision                          F
 GLOBAL| FFTs using library dependent lengths                                  F
 GLOBAL| Grid backend                                                       AUTO
 GLOBAL| Global print level                                               MEDIUM
 GLOBAL| MPI I/O enabled                                                       T
 GLOBAL| Total number of message passing processes                            32
 GLOBAL| Number of threads for this process                                    1
 GLOBAL| This output is from process                                           0
 GLOBAL| Stack size for threads created by OpenMP (OMP_STACKSIZE)        default
 GLOBAL| CPU model name                              INTEL(R) XEON(R) GOLD 6544Y
 GLOBAL| CPUID                                                              1003

 MEMORY| system memory details [Kb]
 MEMORY|                        rank 0           min           max       average
 MEMORY| MemTotal            527978136     527978136     527978136     527978136
 MEMORY| MemFree             521408144     521408144     521408144     521408144
 MEMORY| Buffers                   904           904           904           904
 MEMORY| Cached                 243948        243948        243948        243948
 MEMORY| Slab                   531956        531956        531956        531956
 MEMORY| SReclaimable           144868        144868        144868        144868
 MEMORY| MemLikelyFree       521797864     521797864     521797864     521797864


 *** Fundamental physical constants (SI units) ***

 *** Literature: B. J. Mohr and B. N. Taylor,
 ***             CODATA recommended values of the fundamental physical
 ***             constants: 2006, Web Version 5.1
 ***             http://physics.nist.gov/constants

 Speed of light in vacuum [m/s]                             2.99792458000000E+08
 Magnetic constant or permeability of vacuum [N/A**2]       1.25663706143592E-06
 Electric constant or permittivity of vacuum [F/m]          8.85418781762039E-12
 Planck constant (h) [J*s]                                  6.62606896000000E-34
 Planck constant (h-bar) [J*s]                              1.05457162825177E-34
 Elementary charge [C]                                      1.60217648700000E-19
 Electron mass [kg]                                         9.10938215000000E-31
 Electron g factor [ ]                                     -2.00231930436220E+00
 Proton mass [kg]                                           1.67262163700000E-27
 Fine-structure constant                                    7.29735253760000E-03
 Rydberg constant [1/m]                                     1.09737315685270E+07
 Avogadro constant [1/mol]                                  6.02214179000000E+23
 Boltzmann constant [J/K]                                   1.38065040000000E-23
 Atomic mass unit [kg]                                      1.66053878200000E-27
 Bohr radius [m]                                            5.29177208590000E-11

 *** Conversion factors ***

 [u] -> [a.u.]                                              1.82288848426455E+03
 [Angstrom] -> [Bohr] = [a.u.]                              1.88972613288564E+00
 [a.u.] = [Bohr] -> [Angstrom]                              5.29177208590000E-01
 [a.u.] -> [s]                                              2.41888432650478E-17
 [a.u.] -> [fs]                                             2.41888432650478E-02
 [a.u.] -> [J]                                              4.35974393937059E-18
 [a.u.] -> [N]                                              8.23872205491840E-08
 [a.u.] -> [K]                                              3.15774647902944E+05
 [a.u.] -> [kJ/mol]                                         2.62549961709828E+03
 [a.u.] -> [kcal/mol]                                       6.27509468713739E+02
 [a.u.] -> [Pa]                                             2.94210107994716E+13
 [a.u.] -> [bar]                                            2.94210107994716E+08
 [a.u.] -> [atm]                                            2.90362800883016E+08
 [a.u.] -> [eV]                                             2.72113838565563E+01
 [a.u.] -> [Hz]                                             6.57968392072181E+15
 [a.u.] -> [1/cm] (wave numbers)                            2.19474631370540E+05
 [a.u./Bohr**2] -> [1/cm]                                   5.14048714338585E+03
 

 CELL_TOP| Volume [angstrom^3]:                                      1281.531824
 CELL_TOP| Vector a [angstrom    10.862     0.000     0.000   |a| =    10.862000
 CELL_TOP| Vector b [angstrom     0.000    10.862     0.000   |b| =    10.862000
 CELL_TOP| Vector c [angstrom     0.000     0.000    10.862   |c| =    10.862000
 CELL_TOP| Angle (b,c), alpha [degree]:                                90.000000
 CELL_TOP| Angle (a,c), beta  [degree]:                                90.000000
 CELL_TOP| Angle (a,b), gamma [degree]:                                90.000000
 CELL_TOP| Numerically orthorhombic:                                         YES
 CELL_TOP| Periodicity                                                       XYZ
 
 GENERATE|  Preliminary Number of Bonds generated:                             0
 GENERATE|  Achieved consistency in connectivity generation.

 CELL| Volume [angstrom^3]:                                          1281.531824
 CELL| Vector a [angstrom]:      10.862     0.000     0.000   |a| =    10.862000
 CELL| Vector b [angstrom]:       0.000    10.862     0.000   |b| =    10.862000
 CELL| Vector c [angstrom]:       0.000     0.000    10.862   |c| =    10.862000
 CELL| Angle (b,c), alpha [degree]:                                    90.000000
 CELL| Angle (a,c), beta  [degree]:                                    90.000000
 CELL| Angle (a,b), gamma [degree]:                                    90.000000
 CELL| Numerically orthorhombic:                                             YES
 CELL| Periodicity                                                           XYZ

 CELL_REF| Volume [angstrom^3]:                                      1281.531824
 CELL_REF| Vector a [angstrom    10.862     0.000     0.000   |a| =    10.862000
 CELL_REF| Vector b [angstrom     0.000    10.862     0.000   |b| =    10.862000
 CELL_REF| Vector c [angstrom     0.000     0.000    10.862   |c| =    10.862000
 CELL_REF| Angle (b,c), alpha [degree]:                                90.000000
 CELL_REF| Angle (a,c), beta  [degree]:                                90.000000
 CELL_REF| Angle (a,b), gamma [degree]:                                90.000000
 CELL_REF| Numerically orthorhombic:                                         YES
 CELL_REF| Periodicity                                                       XYZ

 *******************************************************************************
 *******************************************************************************
 **                                                                           **
 **     #####                         ##              ##                      **
 **    ##   ##            ##          ##              ##                      **
 **   ##     ##                       ##            ######                    **
 **   ##     ##  ##   ##  ##   #####  ##  ##   ####   ##    #####    #####    **
 **   ##     ##  ##   ##  ##  ##      ## ##   ##      ##   ##   ##  ##   ##   **
 **   ##  ## ##  ##   ##  ##  ##      ####     ###    ##   ######   ######    **
 **    ##  ###   ##   ##  ##  ##      ## ##      ##   ##   ##       ##        **
 **     #######   #####   ##   #####  ##  ##  ####    ##    #####   ##        **
 **           ##                                                    ##        **
 **                                                                           **
 **                                                ... make the atoms dance   **
 **                                                                           **
 **            Copyright (C) by CP2K developers group (2000-2024)             **
 **                      J. Chem. Phys. 152, 194103 (2020)                    **
 **                                                                           **
 *******************************************************************************

 DFT| Spin restricted Kohn-Sham (RKS) calculation                            RKS
 DFT| Multiplicity                                                             1
 DFT| Number of spin states                                                    1
 DFT| Charge                                                                   0
 DFT| Self-interaction correction (SIC)                                       NO
 DFT| Cutoffs: density                                              1.000000E-10
 DFT|          gradient                                             1.000000E-10
 DFT|          tau                                                  1.000000E-10
 DFT|          cutoff_smoothing_range                               0.000000E+00
 DFT| XC density smoothing                                                  NONE
 DFT| XC derivatives                                                          PW

 FUNCTIONAL| PBE:
 FUNCTIONAL| J.P.Perdew, K.Burke, M.Ernzerhof, Phys. Rev. Letter, vol. 77, n 18,
 FUNCTIONAL|  pp. 3865-3868, (1996) {spin unpolarized}                          


 QS| Method:                                                                 GPW
 QS| Density plane wave grid type                        NON-SPHERICAL FULLSPACE
 QS| Number of grid levels:                                                    4
 QS| Density cutoff [a.u.]:                                                300.0
 QS| Multi grid cutoff [a.u.]: 1) grid level                               300.0
 QS|                           2) grid level                               100.0
 QS|                           3) grid level                                33.3
 QS|                           4) grid level                                11.1
 QS| Grid level progression factor:                                          3.0
 QS| Relative density cutoff [a.u.]:                                        30.0
 QS| Interaction thresholds: eps_pgf_orb:                                1.0E-06
 QS|                         eps_filter_matrix:                          0.0E+00
 QS|                         eps_core_charge:                            1.0E-14
 QS|                         eps_rho_gspace:                             1.0E-12
 QS|                         eps_rho_rspace:                             1.0E-12
 QS|                         eps_gvg_rspace:                             1.0E-06
 QS|                         eps_ppl:                                    1.0E-02
 QS|                         eps_ppnl:                                   1.0E-08


 ATOMIC KIND INFORMATION

  1. Atomic kind: Si                                    Number of atoms:      64

     Orbital Basis Set                                        DZVP-MOLOPT-SR-GTH

       Number of orbital shell sets:                                           1
       Number of orbital shells:                                               5
       Number of primitive Cartesian functions:                                4
       Number of Cartesian basis functions:                                   14
       Number of spherical basis functions:                                   13
       Norm type:                                                              2

       Normalised Cartesian orbitals:

                        Set   Shell   Orbital            Exponent    Coefficient

                          1       1    2s                1.256768       0.294045
                                                         0.506394      -0.015884
                                                         0.238884      -0.207657
                                                         0.087337      -0.036225

                          1       2    3s                1.256768      -1.532347
                                                         0.506394       0.524539
                                                         0.238884       0.025013
                                                         0.087337      -0.052203

                          1       3    3px               1.256768       0.152274
                                                         0.506394      -0.154145
                                                         0.238884      -0.115581
                                                         0.087337      -0.028372
                          1       3    3py               1.256768       0.152274
                                                         0.506394      -0.154145
                                                         0.238884      -0.115581
                                                         0.087337      -0.028372
                          1       3    3pz               1.256768       0.152274
                                                         0.506394      -0.154145
                                                         0.238884      -0.115581
                                                         0.087337      -0.028372

                          1       4    4px               1.256768       0.313378
                                                         0.506394      -0.415360
                                                         0.238884      -0.022539
                                                         0.087337       0.078473
                          1       4    4py               1.256768       0.313378
                                                         0.506394      -0.415360
                                                         0.238884      -0.022539
                                                         0.087337       0.078473
                          1       4    4pz               1.256768       0.313378
                                                         0.506394      -0.415360
                                                         0.238884      -0.022539
                                                         0.087337       0.078473

                          1       5    4dx2              1.256768       0.325879
                                                         0.506394       0.163831
                                                         0.238884       0.044076
                                                         0.087337       0.010608
                          1       5    4dxy              1.256768       0.564439
                                                         0.506394       0.283764
                                                         0.238884       0.076342
                                                         0.087337       0.018373
                          1       5    4dxz              1.256768       0.564439
                                                         0.506394       0.283764
                                                         0.238884       0.076342
                                                         0.087337       0.018373
                          1       5    4dy2              1.256768       0.325879
                                                         0.506394       0.163831
                                                         0.238884       0.044076
                                                         0.087337       0.010608
                          1       5    4dyz              1.256768       0.564439
                                                         0.506394       0.283764
                                                         0.238884       0.076342
                                                         0.087337       0.018373
                          1       5    4dz2              1.256768       0.325879
                                                         0.506394       0.163831
                                                         0.238884       0.044076
                                                         0.087337       0.010608

       Atomic covalent radius [Angstrom]:                                  1.110

       Atomic van der Waals radius [Angstrom]:                             2.100

     GTH Potential information for                                    GTH-PBE-q4

       Description:                       Goedecker-Teter-Hutter pseudopotential
                                           Goedecker et al., PRB 54, 1703 (1996)
                                          Hartwigsen et al., PRB 58, 3641 (1998)
                                                      Krack, TCA 114, 145 (2005)

       Gaussian exponent of the core charge distribution:               2.582645
       Electronic configuration (s p d ...):                               2   2

       Parameters of the local part of the GTH pseudopotential:

                          rloc        C1          C2          C3          C4
                        0.440000   -6.269288

       Parameters of the non-local part of the GTH pseudopotential:

                   l      r(l)      h(i,j,l)

                   0    0.435634    8.951742   -2.706271
                                   -2.706271    3.493781
                   1    0.497942    2.431277


 MOLECULE KIND INFORMATION


 All atoms are their own molecule, skipping detailed information


 TOTAL NUMBERS AND MAXIMUM NUMBERS

  Total number of            - Atomic kinds:                                   1
                             - Atoms:                                         64
                             - Shell sets:                                    64
                             - Shells:                                       320
                             - Primitive Cartesian functions:                256
                             - Cartesian basis functions:                    896
                             - Spherical basis functions:                    832

  Maximum angular momentum of- Orbital basis functions:                        2
                             - Local part of the GTH pseudopotential:          0
                             - Non-local part of the GTH pseudopotential:      2


 MODULE QUICKSTEP: ATOMIC COORDINATES IN ANGSTROM

   Atom Kind Element         X             Y             Z       Z(eff)     Mass
      1    1 Si   14      0.000000      0.000000      0.000000   4.0000  28.0855
      2    1 Si   14      0.000000      2.715500      2.715500   4.0000  28.0855
      3    1 Si   14      2.715500      0.000000      2.715500   4.0000  28.0855
      4    1 Si   14      2.715500      2.715500      0.000000   4.0000  28.0855
      5    1 Si   14      1.357750      1.357750      1.357750   4.0000  28.0855
      6    1 Si   14      1.357750      4.073250      4.073250   4.0000  28.0855
      7    1 Si   14      4.073250      1.357750      4.073250   4.0000  28.0855
      8    1 Si   14      4.073250      4.073250      1.357750   4.0000  28.0855
      9    1 Si   14      0.000000      0.000000      5.431000   4.0000  28.0855
     10    1 Si   14      0.000000      2.715500      8.146500   4.0000  28.0855
     11    1 Si   14      2.715500      0.000000      8.146500   4.0000  28.0855
     12    1 Si   14      2.715500      2.715500      5.431000   4.0000  28.0855
     13    1 Si   14      1.357750      1.357750      6.788750   4.0000  28.0855
     14    1 Si   14      1.357750      4.073250      9.504250   4.0000  28.0855
     15    1 Si   14      4.073250      1.357750      9.504250   4.0000  28.0855
     16    1 Si   14      4.073250      4.073250      6.788750   4.0000  28.0855
     17    1 Si   14      0.000000      5.431000      0.000000   4.0000  28.0855
     18    1 Si   14      0.000000      8.146500      2.715500   4.0000  28.0855
     19    1 Si   14      2.715500      5.431000      2.715500   4.0000  28.0855
     20    1 Si   14      2.715500      8.146500      0.000000   4.0000  28.0855
     21    1 Si   14      1.357750      6.788750      1.357750   4.0000  28.0855
     22    1 Si   14      1.357750      9.504250      4.073250   4.0000  28.0855
     23    1 Si   14      4.073250      6.788750      4.073250   4.0000  28.0855
     24    1 Si   14      4.073250      9.504250      1.357750   4.0000  28.0855
     25    1 Si   14      0.000000      5.431000      5.431000   4.0000  28.0855
     26    1 Si   14      0.000000      8.146500      8.146500   4.0000  28.0855
     27    1 Si   14      2.715500      5.431000      8.146500   4.0000  28.0855
     28    1 Si   14      2.715500      8.146500      5.431000   4.0000  28.0855
     29    1 Si   14      1.357750      6.788750      6.788750   4.0000  28.0855
     30    1 Si   14      1.357750      9.504250      9.504250   4.0000  28.0855
     31    1 Si   14      4.073250      6.788750      9.504250   4.0000  28.0855
     32    1 Si   14      4.073250      9.504250      6.788750   4.0000  28.0855
     33    1 Si   14      5.431000      0.000000      0.000000   4.0000  28.0855
     34    1 Si   14      5.431000      2.715500      2.715500   4.0000  28.0855
     35    1 Si   14      8.146500      0.000000      2.715500   4.0000  28.0855
     36    1 Si   14      8.146500      2.715500      0.000000   4.0000  28.0855
     37    1 Si   14      6.788750      1.357750      1.357750   4.0000  28.0855
     38    1 Si   14      6.788750      4.073250      4.073250   4.0000  28.0855
     39    1 Si   14      9.504250      1.357750      4.073250   4.0000  28.0855
     40    1 Si   14      9.504250      4.073250      1.357750   4.0000  28.0855
     41    1 Si   14      5.431000      0.000000      5.431000   4.0000  28.0855
     42    1 Si   14      5.431000      2.715500      8.146500   4.0000  28.0855
     43    1 Si   14      8.146500      0.000000      8.146500   4.0000  28.0855
     44    1 Si   14      8.146500      2.715500      5.431000   4.0000  28.0855
     45    1 Si   14      6.788750      1.357750      6.788750   4.0000  28.0855
     46    1 Si   14      6.788750      4.073250      9.504250   4.0000  28.0855
     47    1 Si   14      9.504250      1.357750      9.504250   4.0000  28.0855
     48    1 Si   14      9.504250      4.073250      6.788750   4.0000  28.0855
     49    1 Si   14      5.431000      5.431000      0.000000   4.0000  28.0855
     50    1 Si   14      5.431000      8.146500      2.715500   4.0000  28.0855
     51    1 Si   14      8.146500      5.431000      2.715500   4.0000  28.0855
     52    1 Si   14      8.146500      8.146500      0.000000   4.0000  28.0855
     53    1 Si   14      6.788750      6.788750      1.357750   4.0000  28.0855
     54    1 Si   14      6.788750      9.504250      4.073250   4.0000  28.0855
     55    1 Si   14      9.504250      6.788750      4.073250   4.0000  28.0855
     56    1 Si   14      9.504250      9.504250      1.357750   4.0000  28.0855
     57    1 Si   14      5.431000      5.431000      5.431000   4.0000  28.0855
     58    1 Si   14      5.431000      8.146500      8.146500   4.0000  28.0855
     59    1 Si   14      8.146500      5.431000      8.146500   4.0000  28.0855
     60    1 Si   14      8.146500      8.146500      5.431000   4.0000  28.0855
     61    1 Si   14      6.788750      6.788750      6.788750   4.0000  28.0855
     62    1 Si   14      6.788750      9.504250      9.504250   4.0000  28.0855
     63    1 Si   14      9.504250      6.788750      9.504250   4.0000  28.0855
     64    1 Si   14      9.504250      9.504250      6.788750   4.0000  28.0855



 SCF PARAMETERS         Density guess:                                    ATOMIC
                        --------------------------------------------------------
                        max_scf:                                              50
                        max_scf_history:                                       0
                        max_diis:                                              4
                        --------------------------------------------------------
                        eps_scf:                                        1.00E-06
                        eps_scf_history:                                0.00E+00
                        eps_diis:                                       1.00E-01
                        eps_eigval:                                     1.00E-05
                        --------------------------------------------------------
                        level_shift [a.u.]:                             0.000000
                        --------------------------------------------------------
                        Outer loop SCF in use 
                        No variables optimised in outer loop
                        eps_scf                                         1.00E-06
                        max_scf                                               50
                        No outer loop optimization
                        step_size                                       5.00E-01

 PW_GRID| Information for grid number                                          1
 PW_GRID| Grid distributed over                                    32 processors
 PW_GRID| Real space group dimensions                                    32    1
 PW_GRID| the grid is blocked:                                                NO
 PW_GRID| Cutoff [a.u.]                                                    300.0
 PW_GRID| spherical cutoff:                                                   NO
 PW_GRID|   Bounds   1            -81      80                Points:         162
 PW_GRID|   Bounds   2            -81      80                Points:         162
 PW_GRID|   Bounds   3            -81      80                Points:         162
 PW_GRID| Volume element (a.u.^3)  0.2034E-02     Volume (a.u.^3)      8648.2055
 PW_GRID| Grid span                                                    FULLSPACE
 PW_GRID|   Distribution                         Average         Max         Min
 PW_GRID|   G-Vectors                           132860.2      133002      132840
 PW_GRID|   G-Rays                                 820.1         821         820
 PW_GRID|   Real Space Points                   132860.2      157464      131220

 PW_GRID| Information for grid number                                          2
 PW_GRID| Number of the reference grid                                         1
 PW_GRID| Grid distributed over                                    32 processors
 PW_GRID| Real space group dimensions                                    32    1
 PW_GRID| the grid is blocked:                                                NO
 PW_GRID| Cutoff [a.u.]                                                    100.0
 PW_GRID| spherical cutoff:                                                   NO
 PW_GRID|   Bounds   1            -48      47                Points:          96
 PW_GRID|   Bounds   2            -48      47                Points:          96
 PW_GRID|   Bounds   3            -48      47                Points:          96
 PW_GRID| Volume element (a.u.^3)  0.9775E-02     Volume (a.u.^3)      8648.2055
 PW_GRID| Grid span                                                    FULLSPACE
 PW_GRID|   Distribution                         Average         Max         Min
 PW_GRID|   G-Vectors                            27648.0       27936       27456
 PW_GRID|   G-Rays                                 288.0         291         286
 PW_GRID|   Real Space Points                    27648.0       27648       27648

 PW_GRID| Information for grid number                                          3
 PW_GRID| Number of the reference grid                                         1
 PW_GRID| Grid distributed over                                    32 processors
 PW_GRID| Real space group dimensions                                    32    1
 PW_GRID| the grid is blocked:                                                NO
 PW_GRID| Cutoff [a.u.]                                                     33.3
 PW_GRID| spherical cutoff:                                                   NO
 PW_GRID|   Bounds   1            -27      26                Points:          54
 PW_GRID|   Bounds   2            -27      26                Points:          54
 PW_GRID|   Bounds   3            -27      26                Points:          54
 PW_GRID| Volume element (a.u.^3)  0.5492E-01     Volume (a.u.^3)      8648.2055
 PW_GRID| Grid span                                                    FULLSPACE
 PW_GRID|   Distribution                         Average         Max         Min
 PW_GRID|   G-Vectors                             4920.8        4968        4860
 PW_GRID|   G-Rays                                  91.1          92          90
 PW_GRID|   Real Space Points                     4920.8        5832        2916

 PW_GRID| Information for grid number                                          4
 PW_GRID| Number of the reference grid                                         1
 PW_GRID| Grid distributed over                                    32 processors
 PW_GRID| Real space group dimensions                                    32    1
 PW_GRID| the grid is blocked:                                                NO
 PW_GRID| Cutoff [a.u.]                                                     11.1
 PW_GRID| spherical cutoff:                                                   NO
 PW_GRID|   Bounds   1            -16      15                Points:          32
 PW_GRID|   Bounds   2            -16      15                Points:          32
 PW_GRID|   Bounds   3            -16      15                Points:          32
 PW_GRID| Volume element (a.u.^3)  0.2639         Volume (a.u.^3)      8648.2055
 PW_GRID| Grid span                                                    FULLSPACE
 PW_GRID|   Distribution                         Average         Max         Min
 PW_GRID|   G-Vectors                             1024.0        1120         960
 PW_GRID|   G-Rays                                  32.0          35          30
 PW_GRID|   Real Space Points                     1024.0        1024        1024

 POISSON| Solver                                                        PERIODIC
 POISSON| Periodicity                                                        XYZ

 RS_GRID| Information for grid number                                          1
 RS_GRID|   Bounds   1            -81      80                Points:         162
 RS_GRID|   Bounds   2            -81      80                Points:         162
 RS_GRID|   Bounds   3            -81      80                Points:         162
 RS_GRID| Real space distribution over                                  4 groups
 RS_GRID| Real space distribution along direction                              2
 RS_GRID| Border size                                                         29
 RS_GRID| Real space distribution over                                  8 groups
 RS_GRID| Real space distribution along direction                              3
 RS_GRID| Border size                                                         29
 RS_GRID|   Distribution                         Average         Max         Min
 RS_GRID|   Planes                                  98.5          99          98
 RS_GRID|   Distribution                         Average         Max         Min
 RS_GRID|   Planes                                  78.2          79          78

 RS_GRID| Information for grid number                                          2
 RS_GRID|   Bounds   1            -48      47                Points:          96
 RS_GRID|   Bounds   2            -48      47                Points:          96
 RS_GRID|   Bounds   3            -48      47                Points:          96
 RS_GRID| Real space fully replicated
 RS_GRID| Group size                                                           1

 RS_GRID| Information for grid number                                          3
 RS_GRID|   Bounds   1            -27      26                Points:          54
 RS_GRID|   Bounds   2            -27      26                Points:          54
 RS_GRID|   Bounds   3            -27      26                Points:          54
 RS_GRID| Real space fully replicated
 RS_GRID| Group size                                                           1

 RS_GRID| Information for grid number                                          4
 RS_GRID|   Bounds   1            -16      15                Points:          32
 RS_GRID|   Bounds   2            -16      15                Points:          32
 RS_GRID|   Bounds   3            -16      15                Points:          32
 RS_GRID| Real space fully replicated
 RS_GRID| Group size                                                           1

 Number of electrons:                                                        256
 Number of occupied orbitals:                                                128
 Number of molecular orbitals:                                               128

 Number of orbital functions:                                                832
 Number of independent orbital functions:                                    832

 Extrapolation method: initial_guess

 Atomic guess: The first density matrix is obtained in terms of atomic orbitals
               and electronic configurations assigned to each atomic kind

 Guess for atomic kind: Si

 Electronic structure
    Total number of core electrons                                         10.00
    Total number of valence electrons                                       4.00
    Total number of electrons                                              14.00
    Multiplicity                                                   not specified
    S   [  2.00  2.00] 2.00
    P   [  6.00] 2.00
 

 *******************************************************************************
                  Iteration          Convergence                     Energy [au]
 *******************************************************************************
                          1        0.526541E-01                  -3.659692963728
                          2        0.125823E-01                  -3.661785675622
                          3        0.408986E-04                  -3.661911567360
                          4        0.675570E-07                  -3.661911568709

 Energy components [Hartree]           Total Energy ::           -3.661911568709
                                        Band Energy ::           -0.941881516273
                                     Kinetic Energy ::            1.409736465412
                                   Potential Energy ::           -5.071648034121
                                      Virial (-V/T) ::            3.597585902439
                                        Core Energy ::           -5.690149137281
                                          XC Energy ::           -0.992569238249
                                     Coulomb Energy ::            3.020806806821
                       Total Pseudopotential Energy ::           -7.143143335066
                       Local Pseudopotential Energy ::           -8.006124475851
                    Nonlocal Pseudopotential Energy ::            0.862981140786
                                        Confinement ::            0.432577323720

 Orbital energies  State     L     Occupation   Energy[a.u.]          Energy[eV]

                       1     0          2.000      -0.357276           -9.721984
 
                       1     1          2.000      -0.113664           -3.092965
 

 Total Electron Density at R=0:                                         0.000026
 Re-scaling the density matrix to get the right number of electrons
                  # Electrons              Trace(P)               Scaling factor
                          256               256.000                        1.000


 SCF WAVEFUNCTION OPTIMIZATION

  ----------------------------------- OT ---------------------------------------
  Minimizer      : DIIS                : direct inversion
                                         in the iterative subspace
                                         using   7 DIIS vectors
                                         safer DIIS on
  Preconditioner : FULL_SINGLE_INVERSE : inversion of 
                                         H + eS - 2*(Sc)(c^T*H*c+const)(Sc)^T
  Precond_solver : DEFAULT
  stepsize       :    0.08000000                  energy_gap     :    0.05000000
  eps_taylor     :   0.10000E-15                  max_taylor     :             4
  ----------------------------------- OT ---------------------------------------

  Step     Update method      Time    Convergence         Total energy    Change
  ------------------------------------------------------------------------------
     1 OT DIIS     0.80E-01    0.3     0.02443742      -240.7471272795 -2.41E+02
     2 OT DIIS     0.80E-01    0.3     0.02026400      -244.9421454104 -4.20E+00
     3 OT DIIS     0.80E-01    0.3     0.01793145      -247.2282493037 -2.29E+00
     4 OT DIIS     0.80E-01    0.3     0.00921060      -249.9483273533 -2.72E+00
     5 OT DIIS     0.80E-01    0.3     0.00563962      -250.6011557376 -6.53E-01
     6 OT DIIS     0.80E-01    0.3     0.00453826      -250.8428956485 -2.42E-01
     7 OT DIIS     0.80E-01    0.3     0.00336020      -251.0580771501 -2.15E-01
     8 OT DIIS     0.80E-01    0.3     0.00265161      -251.1913473660 -1.33E-01
     9 OT DIIS     0.80E-01    0.3     0.00219971      -251.2936613895 -1.02E-01
    10 OT DIIS     0.80E-01    0.3     0.00175928      -251.3764880976 -8.28E-02
    11 OT DIIS     0.80E-01    0.3     0.00153915      -251.4345073968 -5.80E-02
    12 OT DIIS     0.80E-01    0.3     0.00125725      -251.4835001030 -4.90E-02
    13 OT DIIS     0.80E-01    0.3     0.00106481      -251.5204838315 -3.70E-02
    14 OT DIIS     0.80E-01    0.3     0.00087701      -251.5518010778 -3.13E-02
    15 OT DIIS     0.80E-01    0.3     0.00071286      -251.5736916119 -2.19E-02
    16 OT DIIS     0.80E-01    0.3     0.00071649      -251.5844597721 -1.08E-02
    17 OT DIIS     0.80E-01    0.3     0.00053518      -251.5975442602 -1.31E-02
    18 OT DIIS     0.80E-01    0.3     0.00048989      -251.6058330872 -8.29E-03
    19 OT DIIS     0.80E-01    0.3     0.00041716      -251.6151616740 -9.33E-03
    20 OT DIIS     0.80E-01    0.3     0.00039386      -251.6202897689 -5.13E-03
    21 OT DIIS     0.80E-01    0.4     0.00037644      -251.6253596467 -5.07E-03
    22 OT DIIS     0.80E-01    0.3     0.00036709      -251.6293226307 -3.96E-03
    23 OT DIIS     0.80E-01    0.3     0.00036134      -251.6335784609 -4.26E-03
    24 OT DIIS     0.80E-01    0.3     0.00035953      -251.6371582721 -3.58E-03
    25 OT DIIS     0.80E-01    0.3     0.00035500      -251.6381123249 -9.54E-04
    26 OT DIIS     0.80E-01    0.3     0.00035005      -251.6409774785 -2.87E-03
    27 OT DIIS     0.80E-01    0.3     0.00034337      -251.6443104731 -3.33E-03
    28 OT DIIS     0.80E-01    0.3     0.00032503      -251.6504104066 -6.10E-03
    29 OT DIIS     0.80E-01    0.3     0.00030924      -251.6549400633 -4.53E-03
    30 OT DIIS     0.80E-01    0.3     0.00027822      -251.6609724278 -6.03E-03
    31 OT DIIS     0.80E-01    0.3     0.00029776      -251.6610160922 -4.37E-05
    32 OT DIIS     0.80E-01    0.3     0.00024228      -251.6683176032 -7.30E-03
    33 OT DIIS     0.80E-01    0.3     0.00019610      -251.6701328860 -1.82E-03
    34 OT DIIS     0.80E-01    0.3     0.00018466      -251.6732116559 -3.08E-03
    35 OT DIIS     0.80E-01    0.3     0.00015246      -251.6741069904 -8.95E-04
    36 OT DIIS     0.80E-01    0.3     0.00013098      -251.6751500042 -1.04E-03
    37 OT DIIS     0.80E-01    0.3     0.00015632      -251.6760702589 -9.20E-04
    38 OT DIIS     0.80E-01    0.3     0.00011573      -251.6768164636 -7.46E-04
    39 OT DIIS     0.80E-01    0.3     0.00009090      -251.6776182824 -8.02E-04
    40 OT DIIS     0.80E-01    0.3     0.00012044      -251.6780033435 -3.85E-04
    41 OT DIIS     0.80E-01    0.4     0.00008629      -251.6781742243 -1.71E-04
    42 OT DIIS     0.80E-01    0.3     0.00008332      -251.6784996229 -3.25E-04
    43 OT DIIS     0.80E-01    0.3     0.00007342      -251.6787811803 -2.82E-04
    44 OT DIIS     0.80E-01    0.3     0.00006936      -251.6790704823 -2.89E-04
    45 OT DIIS     0.80E-01    0.3     0.00006335      -251.6794612014 -3.91E-04
    46 OT DIIS     0.80E-01    0.3     0.00006096      -251.6796578594 -1.97E-04
    47 OT DIIS     0.80E-01    0.3     0.00005793      -251.6799258875 -2.68E-04
    48 OT DIIS     0.80E-01    0.3     0.00005618      -251.6800823832 -1.56E-04
    49 OT DIIS     0.80E-01    0.3     0.00005429      -251.6802910564 -2.09E-04
    50 OT DIIS     0.80E-01    0.3     0.00004854      -251.6805906986 -3.00E-04

  Leaving inner SCF loop after reaching    50 steps.


  Electronic density on regular grids:       -256.0000000000        0.0000000000
  Core density on regular grids:              255.9999999995       -0.0000000005
  Total charge density on r-space grids:       -0.0000000005
  Total charge density g-space grids:          -0.0000000005

  Overlap energy of the core charge distribution:               0.00000000042431
  Self energy of the core charge distribution:               -656.51151540102558
  Core Hamiltonian energy:                                    139.02595924599871
  Hartree energy:                                             343.08173900928637
  Exchange-correlation energy:                                -77.27677355324614

  Total energy:                                              -251.68059069856236

  outer SCF iter =    1 RMS gradient =   0.49E-04 energy =       -251.6805906986

  ----------------------------------- OT ---------------------------------------
  Minimizer      : DIIS                : direct inversion
                                         in the iterative subspace
                                         using   7 DIIS vectors
                                         safer DIIS on
  Preconditioner : FULL_SINGLE_INVERSE : inversion of 
                                         H + eS - 2*(Sc)(c^T*H*c+const)(Sc)^T
  Precond_solver : DEFAULT
  stepsize       :    0.08000000                  energy_gap     :    0.05000000
  eps_taylor     :   0.10000E-15                  max_taylor     :             4
  ----------------------------------- OT ---------------------------------------

  Step     Update method      Time    Convergence         Total energy    Change
  ------------------------------------------------------------------------------
     1 OT DIIS     0.80E-01    0.6     0.00025597      -251.6807301252 -1.39E-04
     2 OT DIIS     0.80E-01    0.3     0.00021742      -251.6812452105 -5.15E-04
     3 OT DIIS     0.80E-01    0.3     0.00009527      -251.6825522568 -1.31E-03
     4 OT DIIS     0.80E-01    0.3     0.00007615      -251.6827073091 -1.55E-04
     5 OT DIIS     0.80E-01    0.3     0.00005509      -251.6828530164 -1.46E-04
     6 OT DIIS     0.80E-01    0.3     0.00004144      -251.6829419229 -8.89E-05
     7 OT DIIS     0.80E-01    0.3     0.00003250      -251.6829951241 -5.32E-05
     8 OT DIIS     0.80E-01    0.3     0.00002394      -251.6830376532 -4.25E-05
     9 OT DIIS     0.80E-01    0.3     0.00001728      -251.6830620590 -2.44E-05
    10 OT DIIS     0.80E-01    0.3     0.00001156      -251.6830762494 -1.42E-05
    11 OT DIIS     0.80E-01    0.4     0.00000848      -251.6830809071 -4.66E-06
    12 OT DIIS     0.80E-01    0.3     0.00000645      -251.6830830864 -2.18E-06
    13 OT DIIS     0.80E-01    0.3     0.00000471      -251.6830843677 -1.28E-06
    14 OT DIIS     0.80E-01    0.3     0.00000347      -251.6830850483 -6.81E-07
    15 OT DIIS     0.80E-01    0.3     0.00000271      -251.6830853593 -3.11E-07
    16 OT DIIS     0.80E-01    0.3     0.00000192      -251.6830856005 -2.41E-07
    17 OT DIIS     0.80E-01    0.3     0.00000148      -251.6830856932 -9.26E-08
    18 OT DIIS     0.80E-01    0.3     0.00000116      -251.6830857443 -5.12E-08
    19 OT DIIS     0.80E-01    0.3     0.00000092      -251.6830857761 -3.17E-08

  *** SCF run converged in    19 steps ***


  Electronic density on regular grids:       -256.0000000000        0.0000000000
  Core density on regular grids:              255.9999999995       -0.0000000005
  Total charge density on r-space grids:       -0.0000000005
  Total charge density g-space grids:          -0.0000000005

  Overlap energy of the core charge distribution:               0.00000000042431
  Self energy of the core charge distribution:               -656.51151540102558
  Core Hamiltonian energy:                                    139.02825645078036
  Hartree energy:                                             343.07897889930075
  Exchange-correlation energy:                                -77.27880572556433

  Total energy:                                              -251.68308577608457

  outer SCF iter =    2 RMS gradient =   0.92E-06 energy =       -251.6830857761
  outer SCF loop converged in   2 iterations or   69 steps


 !-----------------------------------------------------------------------------!
                     Mulliken Population Analysis

 #  Atom  Element  Kind  Atomic population                           Net charge
       1     Si       1          4.000006                             -0.000006
       2     Si       1          4.000004                             -0.000004
       3     Si       1          3.999995                              0.000005
       4     Si       1          3.999994                              0.000006
       5     Si       1          4.000005                             -0.000005
       6     Si       1          3.999997                              0.000003
       7     Si       1          4.000001                             -0.000001
       8     Si       1          4.000000                              0.000000
       9     Si       1          4.000007                             -0.000007
      10     Si       1          4.000004                             -0.000004
      11     Si       1          3.999995                              0.000005
      12     Si       1          3.999998                              0.000002
      13     Si       1          4.000003                             -0.000003
      14     Si       1          3.999998                              0.000002
      15     Si       1          4.000000                              0.000000
      16     Si       1          3.999997                              0.000003
      17     Si       1          4.000006                             -0.000006
      18     Si       1          4.000002                             -0.000002
      19     Si       1          3.999997                              0.000003
      20     Si       1          3.999996                              0.000004
      21     Si       1          4.000005                             -0.000005
      22     Si       1          3.999999                              0.000001
      23     Si       1          3.999999                              0.000001
      24     Si       1          4.000000                             -0.000000
      25     Si       1          4.000007                             -0.000007
      26     Si       1          4.000003                             -0.000003
      27     Si       1          3.999994                              0.000006
      28     Si       1          3.999995                              0.000005
      29     Si       1          4.000004                             -0.000004
      30     Si       1          3.999995                              0.000005
      31     Si       1          3.999999                              0.000001
      32     Si       1          3.999999                              0.000001
      33     Si       1          4.000005                             -0.000005
      34     Si       1          4.000003                             -0.000003
      35     Si       1          3.999995                              0.000005
      36     Si       1          3.999995                              0.000005
      37     Si       1          4.000005                             -0.000005
      38     Si       1          3.999998                              0.000002
      39     Si       1          4.000002                             -0.000002
      40     Si       1          3.999998                              0.000002
      41     Si       1          4.000007                             -0.000007
      42     Si       1          4.000002                             -0.000002
      43     Si       1          3.999996                              0.000004
      44     Si       1          3.999994                              0.000006
      45     Si       1          4.000005                             -0.000005
      46     Si       1          3.999996                              0.000004
      47     Si       1          4.000000                              0.000000
      48     Si       1          4.000000                              0.000000
      49     Si       1          4.000005                             -0.000005
      50     Si       1          4.000003                             -0.000003
      51     Si       1          3.999993                              0.000007
      52     Si       1          3.999992                              0.000008
      53     Si       1          4.000004                             -0.000004
      54     Si       1          3.999996                              0.000004
      55     Si       1          3.999999                              0.000001
      56     Si       1          4.000001                             -0.000001
      57     Si       1          4.000008                             -0.000008
      58     Si       1          4.000003                             -0.000003
      59     Si       1          3.999995                              0.000005
      60     Si       1          3.999997                              0.000003
      61     Si       1          4.000001                             -0.000001
      62     Si       1          3.999998                              0.000002
      63     Si       1          4.000002                             -0.000002
      64     Si       1          3.999999                              0.000001
 # Total charge                            256.000000                  0.000000

 !-----------------------------------------------------------------------------!

 !-----------------------------------------------------------------------------!
                           Hirshfeld Charges

  #Atom  Element  Kind  Ref Charge     Population                    Net charge
      1       Si     1       4.000          4.000                        -0.000
      2       Si     1       4.000          4.000                        -0.000
      3       Si     1       4.000          4.000                         0.000
      4       Si     1       4.000          4.000                         0.000
      5       Si     1       4.000          4.000                        -0.000
      6       Si     1       4.000          4.000                         0.000
      7       Si     1       4.000          4.000                        -0.000
      8       Si     1       4.000          4.000                         0.000
      9       Si     1       4.000          4.000                        -0.000
     10       Si     1       4.000          4.000                        -0.000
     11       Si     1       4.000          4.000                         0.000
     12       Si     1       4.000          4.000                         0.000
     13       Si     1       4.000          4.000                        -0.000
     14       Si     1       4.000          4.000                         0.000
     15       Si     1       4.000          4.000                        -0.000
     16       Si     1       4.000          4.000                         0.000
     17       Si     1       4.000          4.000                        -0.000
     18       Si     1       4.000          4.000                        -0.000
     19       Si     1       4.000          4.000                         0.000
     20       Si     1       4.000          4.000                         0.000
     21       Si     1       4.000          4.000                        -0.000
     22       Si     1       4.000          4.000                         0.000
     23       Si     1       4.000          4.000                         0.000
     24       Si     1       4.000          4.000                         0.000
     25       Si     1       4.000          4.000                        -0.000
     26       Si     1       4.000          4.000                        -0.000
     27       Si     1       4.000          4.000                         0.000
     28       Si     1       4.000          4.000                         0.000
     29       Si     1       4.000          4.000                        -0.000
     30       Si     1       4.000          4.000                         0.000
     31       Si     1       4.000          4.000                         0.000
     32       Si     1       4.000          4.000                         0.000
     33       Si     1       4.000          4.000                        -0.000
     34       Si     1       4.000          4.000                        -0.000
     35       Si     1       4.000          4.000                         0.000
     36       Si     1       4.000          4.000                         0.000
     37       Si     1       4.000          4.000                        -0.000
     38       Si     1       4.000          4.000                         0.000
     39       Si     1       4.000          4.000                        -0.000
     40       Si     1       4.000          4.000                         0.000
     41       Si     1       4.000          4.000                        -0.000
     42       Si     1       4.000          4.000                        -0.000
     43       Si     1       4.000          4.000                         0.000
     44       Si     1       4.000          4.000                         0.000
     45       Si     1       4.000          4.000                        -0.000
     46       Si     1       4.000          4.000                         0.000
     47       Si     1       4.000          4.000                         0.000
     48       Si     1       4.000          4.000                        -0.000
     49       Si     1       4.000          4.000                        -0.000
     50       Si     1       4.000          4.000                        -0.000
     51       Si     1       4.000          4.000                         0.000
     52       Si     1       4.000          4.000                         0.000
     53       Si     1       4.000          4.000                        -0.000
     54       Si     1       4.000          4.000                         0.000
     55       Si     1       4.000          4.000                         0.000
     56       Si     1       4.000          4.000                        -0.000
     57       Si     1       4.000          4.000                        -0.000
     58       Si     1       4.000          4.000                        -0.000
     59       Si     1       4.000          4.000                         0.000
     60       Si     1       4.000          4.000                         0.000
     61       Si     1       4.000          4.000                        -0.000
     62       Si     1       4.000          4.000                         0.000
     63       Si     1       4.000          4.000                        -0.000
     64       Si     1       4.000          4.000                         0.000

  Total Charge                                                           -0.000
 !-----------------------------------------------------------------------------!

 ENERGY| Total FORCE_EVAL ( QS ) energy [a.u.]:             -251.683085776084567

 -------------------------------------------------------------------------------
 -                                                                             -
 -                                DBCSR STATISTICS                             -
 -                                                                             -
 -------------------------------------------------------------------------------
 COUNTER                                    TOTAL       BLAS       SMM       ACC
 flops    13 x    32 x    32             68157440       0.0%    100.0%      0.0%     
 flops    32 x    32 x    32           2642411520       0.0%    100.0%      0.0%     
 flops    13 x    13 x    32           6479216640       0.0%    100.0%      0.0%     
 flops    32 x    32 x   104           7504134144       0.0%    100.0%      0.0%     
 flops   208 x    32 x    32           9296674816       0.0%    100.0%      0.0%     
 flops   208 x    32 x   104          12581863424       0.0%    100.0%      0.0%     
 flops    13 x    32 x    13          26226982912       0.0%    100.0%      0.0%     
 flops inhomo. stacks                           0       0.0%      0.0%      0.0%
 flops total                        64.799441E+09       0.0%    100.0%      0.0%
 flops max/rank                      3.864343E+09       0.0%    100.0%      0.0%
 matmuls inhomo. stacks                         0       0.0%      0.0%      0.0%
 matmuls total                            3132896       0.0%    100.0%      0.0%
 number of processed stacks                134784       0.0%    100.0%      0.0%
 average stack size                                     0.0      23.2       0.0
 marketing flops                    71.195165E+09
 -------------------------------------------------------------------------------
 # multiplications                           1544
 max memory usage/rank             590.872576E+06
 # max total images/rank                        2
 # max 3D layers                                1
 # MPI messages exchanged                  642304
 MPI messages size (bytes):
  total size                        15.032353E+09
  min size                           0.000000E+00
  max size                         173.056000E+03
  average size                      23.403797E+03
 MPI breakdown and total messages size (bytes):
             size <=      128              313000                        0
       128 < size <=     8192              117288                960823296
      8192 < size <=    32768              116256               3095199744
     32768 < size <=   131072               46704               2486894592
    131072 < size <=  4194304               49056               8489435136
   4194304 < size <= 16777216                   0                        0
  16777216 < size                               0                        0
 -------------------------------------------------------------------------------

 *** WARNING in dbcsr_mm.F:301 :: Using a non-square number of MPI ranks ***
 *** might lead to poor performance. Used ranks: 32 Suggested: 36 64     ***

 -------------------------------------------------------------------------------
 -                                                                             -
 -                      DBCSR MESSAGE PASSING PERFORMANCE                      -
 -                                                                             -
 -------------------------------------------------------------------------------
 ROUTINE             CALLS      AVE VOLUME [Bytes]
 MP_Bcast                8                     12.
 MP_Allreduce         8357                     14.
 MP_Alltoall          4956                   4252.
 MP_ISend            47446                  12119.
 MP_IRecv            47192                  11365.
 -------------------------------------------------------------------------------

 -------------------------------------------------------------------------------
 -                                                                             -
 -                                DBM STATISTICS                               -
 -                                                                             -
 -------------------------------------------------------------------------------
    M  x    N  x    K                                          COUNT     PERCENT
 -------------------------------------------------------------------------------

 -------------------------------------------------------------------------------
 -                                                                             -
 -                                GRID STATISTICS                              -
 -                                                                             -
 -------------------------------------------------------------------------------
 LP    KERNEL             BACKEND                              COUNT     PERCENT
 4     collocate ortho    CPU                                5362560      50.33%
 4     integrate ortho    CPU                                5285952      49.61%
 0     collocate general  CPU                                   4096       0.04%
 0     integrate general  CPU                                   2048       0.02%
 -------------------------------------------------------------------------------

 MEMORY| Estimated peak process memory [MiB]                                 565

 -------------------------------------------------------------------------------
 ----                             MULTIGRID INFO                            ----
 -------------------------------------------------------------------------------
 count for grid        1:              0          cutoff [a.u.]          300.00
 count for grid        2:          37696          cutoff [a.u.]          100.00
 count for grid        3:          43264          cutoff [a.u.]           33.33
 count for grid        4:          49408          cutoff [a.u.]           11.11
 total gridlevel count  :         130368

 -------------------------------------------------------------------------------
 -                                                                             -
 -                         MESSAGE PASSING PERFORMANCE                         -
 -                                                                             -
 -------------------------------------------------------------------------------

 ROUTINE             CALLS      AVE VOLUME [Bytes]
 MP_Group                4
 MP_Bcast             3925                  48007.
 MP_Allreduce        10524                    265.
 MP_Sync                54
 MP_Alltoall          1330                5092344.
 MP_SendRecv          6510                  92011.
 MP_ISendRecv         6417                  92011.
 MP_Wait             12381
 MP_ISend             5396                 261528.
 MP_IRecv             5396                 261476.
 -------------------------------------------------------------------------------


 -------------------------------------------------------------------------------
 -                                                                             -
 -                           R E F E R E N C E S                               -
 -                                                                             -
 -------------------------------------------------------------------------------
 
 CP2K version 2024.3, the CP2K developers group (2024).
 CP2K is freely available from https://www.cp2k.org/ .
 
 T. D. Kuehne, M. Iannuzzi, M. Del Ben, V. V. Rybkin, P. Seewald, F. Stein, T. 
 Laino, R. Z. Khaliullin, O. Schuett, F. Schiffmann, D. Golze, J. Wilhelm, S. 
 Chulkov, M. H. Bani-Hashemian, V. Weber, U. Borstnik, M. Taillefumier, A. S. 
 Jakobovits, A. Lazzaro, H. Pabst, T. Mueller, R. Schade, M. Guidon, S. 
 Andermatt, N. Holmberg, G. K. Schenter, A. Hehn, A. Bussy, F. Belleflamme, G. 
 Tabacchi, A. Gloess, M. Lass, I. Bethune, C. J. Mundy, C. Plessl, M. Watkins, 
 J. VandeVondele, M. Krack, J. Hutter.
 J. Chem. Phys. 152, 194103 (2020).
 CP2K: An electronic structure and molecular dynamics software package - 
 Quickstep: Efficient and accurate electronic structure calculations.
 https://doi.org/10.1063/5.0007045

 O. Schuett, P. Messmer, J. Hutter, J. VandeVondele.
 Electronic Structure Calculations on Graphics Processing Units, 173-190 (2016).
 GPU-Accelerated Sparse Matrix-Matrix Multiplication for Linear Scaling Density 
 Functional Theory.
 https://doi.org/10.1002/9781118670712.ch8

 A. Heinecke, G. Henry, M. Hutchinson, H. Pabst.
 Proceedings of Intl. Supercomputing Conference, 981-991 (2016).
 LIBXSMM: Accelerating Small Matrix Multiplications by Runtime Code Generation.
 https://doi.org/10.1109/SC.2016.83

 J. Hutter, M. Iannuzzi, F. Schiffmann, J. VandeVondele.
 WIREs Comput Mol Sci. 4, 15-25 (2014).
 CP2K: atomistic simulations of condensed matter systems.
 https://doi.org/10.1002/wcms.1159

 U. Borstnik, J. VandeVondele, V. Weber, J. Hutter.
 Parallel Comput. 40, 47-58 (2014).
 Sparse matrix multiplication: The distributed block-compressed sparse row 
 library.
 https://doi.org/10.1016/j.parco.2014.03.012

 A. Marek, V. Blum, R. Johanni, V. Havu, B. Lang, T. Auckenthaler, A. Heinecke, 
 H. Bungartz, H. Lederer.
 J. Phys. Condens. Matter 26, 213201 (2014).
 The ELPA library: scalable parallel eigenvalue solutions for electronic 
 structure theory and computational science.
 https://doi.org/10.1088/0953-8984/26/21/213201

 J. VandeVondele, J. Hutter.
 J. Chem. Phys. 127, 114105 (2007).
 Gaussian basis sets for accurate calculations on molecular systems in gas and 
 condensed phases.
 https://doi.org/10.1063/1.2770708

 J. VandeVondele, M. Krack, F. Mohamed, M. Parrinello, T. Chassaing, J. Hutter.
 Comput. Phys. Commun. 167, 103-128 (2005).
 QUICKSTEP: Fast and accurate density functional calculations using a mixed 
 Gaussian and plane waves approach.
 https://doi.org/10.1016/j.cpc.2004.12.014

 M. Krack.
 Theor. Chem. Acc. 114, 145-152 (2005).
 Pseudopotentials for H to Kr optimized for gradient-corrected 
 exchange-correlation functionals.
 https://doi.org/10.1007/s00214-005-0655-y

 M. Frigo, S. G. Johnson.
 Proc. IEEE 93, 216-231 (2005).
 The design and implementation of FFTW3.
 https://doi.org/10.1109/JPROC.2004.840301

 J. VandeVondele, J. Hutter.
 J. Chem. Phys. 118, 4365-4369 (2003).
 An efficient orbital transformation method for electronic structure 
 calculations.
 https://doi.org/10.1063/1.1543154

 C. Hartwigsen, S. Goedecker, J. Hutter.
 Phys. Rev. B 58, 3641-3662 (1998).
 Relativistic separable dual-space Gaussian pseudopotentials from H to Rn.
 https://doi.org/10.1103/PhysRevB.58.3641

 G. Lippert, J. Hutter, M. Parrinello.
 Mol. Phys. 92, 477-487 (1997).
 A hybrid Gaussian and plane wave density functional scheme.
 https://doi.org/10.1080/002689797170220

 S. Goedecker, M. Teter, J. Hutter.
 Phys. Rev. B 54, 1703-1710 (1996).
 Separable dual-space Gaussian pseudopotentials.
 https://doi.org/10.1103/PhysRevB.54.1703

 J. P. Perdew, K. Burke, M. Ernzerhof.
 Phys. Rev. Lett. 77, 3865-3868 (1996).
 Generalized gradient approximation made simple.
 https://doi.org/10.1103/PhysRevLett.77.3865


 -------------------------------------------------------------------------------
 -                                                                             -
 -                                T I M I N G                                  -
 -                                                                             -
 -------------------------------------------------------------------------------
 SUBROUTINE                       CALLS  ASD         SELF TIME        TOTAL TIME
                                MAXIMUM       AVERAGE  MAXIMUM  AVERAGE  MAXIMUM
 CP2K                                 1  1.0    0.009    0.035   21.627   21.629
 qs_energies                          1  2.0    0.000    0.000   21.504   21.507
 scf_env_do_scf                       1  3.0    0.000    0.001   21.191   21.191
 scf_env_do_scf_inner_loop           69  4.0    0.001    0.011   20.713   20.731
 qs_ks_update_qs_env                 71  5.0    0.000    0.000   13.558   13.562
 rebuild_ks_matrix                   69  6.0    0.000    0.000   13.553   13.557
 qs_ks_build_kohn_sham_matrix        69  7.0    0.005    0.006   13.553   13.557
 qs_rho_update_rho_low               70  5.0    0.000    0.000    6.771    6.776
 calculate_rho_elec                  70  6.0    0.019    0.023    6.770    6.776
 sum_up_and_integrate                69  8.0    0.001    0.001    6.566    6.567
 integrate_v_rspace                  69  9.0    0.001    0.001    6.546    6.548
 qs_vxc_create                       69  8.0    0.001    0.001    5.921    5.957
 xc_vxc_pw_create                    69  9.0    0.078    0.091    5.920    5.956
 fft_wrap_pw1pw2                   1179 10.3    0.006    0.007    5.755    5.793
 fft_wrap_pw1pw2_300                762 11.7    0.223    0.231    5.566    5.610
 fft3d_ps                          1179 12.3    2.798    3.077    4.678    4.731
 grid_collocate_task_list            70  7.0    4.285    4.544    4.285    4.544
 grid_integrate_task_list            69 10.0    4.353    4.458    4.353    4.458
 xc_pw_derive                       414 11.0    0.003    0.003    3.654    3.685
 xc_rho_set_and_dset_create          69 10.0    0.054    0.056    3.350    3.646
 xc_pw_divergence                    69 10.0    0.001    0.001    2.445    2.473
 density_rs2pw                       70  7.0    0.002    0.002    2.294    2.435
 potential_pw2rs                     69 10.0    0.003    0.003    2.051    2.052
 xc_functional_eval                  69 11.0    0.000    0.001    1.443    1.733
 pbe_lda_eval                        69 12.0    1.443    1.733    1.443    1.733
 mp_alltoall_z22v                  1179 14.3    1.382    1.476    1.382    1.476
 transfer_pw2rs                     277 11.0    0.001    0.001    1.461    1.463
 transfer_rs2pw                     282  8.0    0.001    0.002    1.214    1.362
 x_to_yz                            622 13.7    0.345    0.400    0.999    1.137
 transfer_pw2rs_300                  70 11.9    0.275    0.290    0.936    0.952
 transfer_rs2pw_300                  72  9.0    0.233    0.246    0.798    0.945
 yz_to_x                            557 12.9    0.145    0.149    0.872    0.923
 qs_scf_new_mos                      69  5.0    0.000    0.000    0.874    0.879
 qs_scf_loop_do_ot                   69  6.0    0.000    0.000    0.873    0.879
 mp_waitany                        5396 11.4    0.680    0.855    0.680    0.855
 ot_scf_mini                         69  7.0    0.001    0.001    0.833    0.836
 dbcsr_multiply_generic            1544 10.1    0.024    0.026    0.749    0.753
 pw_derive                          621 11.3    0.673    0.689    0.673    0.689
 ot_mini                             69  8.0    0.000    0.000    0.464    0.468
 init_scf_loop                        2  4.0    0.000    0.000    0.459    0.459
 rs_grid_zero                        72 12.8    0.444    0.458    0.444    0.458
 transfer_pw2rs_100                  69 12.0    0.309    0.319    0.424    0.455
 mp_alltoall_d11v                   997 12.2    0.307    0.452    0.307    0.452
 -------------------------------------------------------------------------------

 The number of warnings for this run is : 1
 
 -------------------------------------------------------------------------------
  **** **** ******  **  PROGRAM ENDED AT                 2026-09-30 22:30:14.255
 ***** ** ***  *** **   PROGRAM RAN ON                                      cu06
 **    ****   ******    PROGRAM RAN BY                                     rudin
 ***** **    ** ** **   PROGRAM PROCESS ID                                490851
  **** **  *******  **  PROGRAM STOPPED IN /home/rudin/tmp-review-cp2k/4c-admm-p
                                           be/Si64
WALLCLOCK 4c-admm-pbe/Si64/pbe.inp 22.53 s  MAXRSS(rank0) 8024 kB
