 DBCSR| CPU Multiplication driver                                           XSMM (U)
 DBCSR| Multrec recursion limit                                              512 (U)
 DBCSR| Multiplication stack size                                           1000 (D)
 DBCSR| Maximum elements for images                                    UNLIMITED (U)
 DBCSR| Multiplicative factor virtual images                                   1 (U)
 DBCSR| Use multiplication densification                                       T (D)
 DBCSR| Multiplication size stacks                                             3 (U)
 DBCSR| Use memory pool for CPU allocation                                     F (U)
 DBCSR| Number of 3D layers                                               SINGLE (U)
 DBCSR| Use MPI memory allocation                                              F (U)
 DBCSR| Use RMA algorithm                                                      F (U)
 DBCSR| Use Communication thread                                               T (U)
 DBCSR| Communication thread load                                             87 (D)
 DBCSR| MPI: My process id                                                     0
 DBCSR| MPI: Number of processes                                              32
 DBCSR| OMP: Current number of threads                                         1
 DBCSR| OMP: Max number of threads                                             1
 DBCSR| Split modifier for TAS multiplication algorithm                  1.0E+00 (U)


  **** **** ******  **  PROGRAM STARTED AT               2026-06-28 01:48:53.496
 ***** ** ***  *** **   PROGRAM STARTED ON                                  cu07
 **    ****   ******    PROGRAM STARTED BY                                 rudin
 ***** **    ** ** **   PROGRAM PROCESS ID                               1323542
  **** **  *******  **  PROGRAM STARTED IN /home/rudin/code/kylin-pbc/art/exampl
                                           e/extern/MgO-HSE06-sc333-cp2k-ADMM

 CP2K| version string:                                       CP2K version 2024.3
 CP2K| source code revision number:                                  git:6712648
 CP2K| cp2kflags: omp libint fftw3 libxc libgrpp elpa parallel scalapack mpi_f08
 CP2K|             cosma xsmm plumed2 spglib mkl libvori libbqb
 CP2K| is freely available from                            https://www.cp2k.org/
 CP2K| Program compiled at            2026年 01月 07日 星期三 01:43:54 CST
 CP2K| Program compiled on                                                  mu01
 CP2K| Program compiled for                                                local
 CP2K| Data directory path    /software/Applications/cp2k/cp2k-2024.3-oneapi-202
 CP2K| Input file name                                                  cp2k.inp
 
 GLOBAL| Force Environment number                                              1
 GLOBAL| Basis set file name                                        BASIS_MOLOPT
 GLOBAL| Potential file name                                      GTH_POTENTIALS
 GLOBAL| MM Potential file name                                     MM_POTENTIAL
 GLOBAL| Coordinate file name                                      __STD_INPUT__
 GLOBAL| Method name                                                        CP2K
 GLOBAL| Project name                                            MgO-HSE06-sc333
 GLOBAL| Run type                                                         ENERGY
 GLOBAL| FFT library                                                       FFTW3
 GLOBAL| Diagonalization library                                            ELPA
 GLOBAL| DGEMM library                                                      BLAS
 GLOBAL| Minimum number of eigenvectors for ELPA usage                        16
 GLOBAL| Orthonormality check for eigenvectors                          DISABLED
 GLOBAL| Matrix multiplication library                                     COSMA
 GLOBAL| All-to-all communication in single precision                          F
 GLOBAL| FFTs using library dependent lengths                                  F
 GLOBAL| Grid backend                                                       AUTO
 GLOBAL| Global print level                                               MEDIUM
 GLOBAL| MPI I/O enabled                                                       T
 GLOBAL| Total number of message passing processes                            32
 GLOBAL| Number of threads for this process                                    1
 GLOBAL| This output is from process                                           0
 GLOBAL| Stack size for threads created by OpenMP (OMP_STACKSIZE)        default
 GLOBAL| CPU model name                              INTEL(R) XEON(R) GOLD 6544Y
 GLOBAL| CPUID                                                              1003

 MEMORY| system memory details [Kb]
 MEMORY|                        rank 0           min           max       average
 MEMORY| MemTotal            527978120     527978120     527978120     527978120
 MEMORY| MemFree             520322164     520322164     520322164     520322164
 MEMORY| Buffers                   924           924           924           924
 MEMORY| Cached                 933804        933804        933804        933804
 MEMORY| Slab                   477280        477280        477280        477280
 MEMORY| SReclaimable           138356        138356        138356        138356
 MEMORY| MemLikelyFree       521395248     521395248     521395248     521395248


 *** Fundamental physical constants (SI units) ***

 *** Literature: B. J. Mohr and B. N. Taylor,
 ***             CODATA recommended values of the fundamental physical
 ***             constants: 2006, Web Version 5.1
 ***             http://physics.nist.gov/constants

 Speed of light in vacuum [m/s]                             2.99792458000000E+08
 Magnetic constant or permeability of vacuum [N/A**2]       1.25663706143592E-06
 Electric constant or permittivity of vacuum [F/m]          8.85418781762039E-12
 Planck constant (h) [J*s]                                  6.62606896000000E-34
 Planck constant (h-bar) [J*s]                              1.05457162825177E-34
 Elementary charge [C]                                      1.60217648700000E-19
 Electron mass [kg]                                         9.10938215000000E-31
 Electron g factor [ ]                                     -2.00231930436220E+00
 Proton mass [kg]                                           1.67262163700000E-27
 Fine-structure constant                                    7.29735253760000E-03
 Rydberg constant [1/m]                                     1.09737315685270E+07
 Avogadro constant [1/mol]                                  6.02214179000000E+23
 Boltzmann constant [J/K]                                   1.38065040000000E-23
 Atomic mass unit [kg]                                      1.66053878200000E-27
 Bohr radius [m]                                            5.29177208590000E-11

 *** Conversion factors ***

 [u] -> [a.u.]                                              1.82288848426455E+03
 [Angstrom] -> [Bohr] = [a.u.]                              1.88972613288564E+00
 [a.u.] = [Bohr] -> [Angstrom]                              5.29177208590000E-01
 [a.u.] -> [s]                                              2.41888432650478E-17
 [a.u.] -> [fs]                                             2.41888432650478E-02
 [a.u.] -> [J]                                              4.35974393937059E-18
 [a.u.] -> [N]                                              8.23872205491840E-08
 [a.u.] -> [K]                                              3.15774647902944E+05
 [a.u.] -> [kJ/mol]                                         2.62549961709828E+03
 [a.u.] -> [kcal/mol]                                       6.27509468713739E+02
 [a.u.] -> [Pa]                                             2.94210107994716E+13
 [a.u.] -> [bar]                                            2.94210107994716E+08
 [a.u.] -> [atm]                                            2.90362800883016E+08
 [a.u.] -> [eV]                                             2.72113838565563E+01
 [a.u.] -> [Hz]                                             6.57968392072181E+15
 [a.u.] -> [1/cm] (wave numbers)                            2.19474631370540E+05
 [a.u./Bohr**2] -> [1/cm]                                   5.14048714338585E+03
 

 CELL_TOP| Volume [angstrom^3]:                                       506.191183
 CELL_TOP| Vector a [angstrom     0.000     6.326     6.326   |a| =     8.945608
 CELL_TOP| Vector b [angstrom     6.326     0.000     6.326   |b| =     8.945608
 CELL_TOP| Vector c [angstrom     6.326     6.326     0.000   |c| =     8.945608
 CELL_TOP| Angle (b,c), alpha [degree]:                                60.000000
 CELL_TOP| Angle (a,c), beta  [degree]:                                60.000000
 CELL_TOP| Angle (a,b), gamma [degree]:                                60.000000
 CELL_TOP| Numerically orthorhombic:                                          NO
 CELL_TOP| Periodicity                                                       XYZ
 
 GENERATE|  Preliminary Number of Bonds generated:                             0
 GENERATE|  Achieved consistency in connectivity generation.

 CELL| Volume [angstrom^3]:                                           506.191183
 CELL| Vector a [angstrom]:       0.000     6.326     6.326   |a| =     8.945608
 CELL| Vector b [angstrom]:       6.326     0.000     6.326   |b| =     8.945608
 CELL| Vector c [angstrom]:       6.326     6.326     0.000   |c| =     8.945608
 CELL| Angle (b,c), alpha [degree]:                                    60.000000
 CELL| Angle (a,c), beta  [degree]:                                    60.000000
 CELL| Angle (a,b), gamma [degree]:                                    60.000000
 CELL| Numerically orthorhombic:                                              NO
 CELL| Periodicity                                                           XYZ

 CELL_REF| Volume [angstrom^3]:                                       506.191183
 CELL_REF| Vector a [angstrom     0.000     6.326     6.326   |a| =     8.945608
 CELL_REF| Vector b [angstrom     6.326     0.000     6.326   |b| =     8.945608
 CELL_REF| Vector c [angstrom     6.326     6.326     0.000   |c| =     8.945608
 CELL_REF| Angle (b,c), alpha [degree]:                                60.000000
 CELL_REF| Angle (a,c), beta  [degree]:                                60.000000
 CELL_REF| Angle (a,b), gamma [degree]:                                60.000000
 CELL_REF| Numerically orthorhombic:                                          NO
 CELL_REF| Periodicity                                                       XYZ

 *******************************************************************************
 *******************************************************************************
 **                                                                           **
 **     #####                         ##              ##                      **
 **    ##   ##            ##          ##              ##                      **
 **   ##     ##                       ##            ######                    **
 **   ##     ##  ##   ##  ##   #####  ##  ##   ####   ##    #####    #####    **
 **   ##     ##  ##   ##  ##  ##      ## ##   ##      ##   ##   ##  ##   ##   **
 **   ##  ## ##  ##   ##  ##  ##      ####     ###    ##   ######   ######    **
 **    ##  ###   ##   ##  ##  ##      ## ##      ##   ##   ##       ##        **
 **     #######   #####   ##   #####  ##  ##  ####    ##    #####   ##        **
 **           ##                                                    ##        **
 **                                                                           **
 **                                                ... make the atoms dance   **
 **                                                                           **
 **            Copyright (C) by CP2K developers group (2000-2024)             **
 **                      J. Chem. Phys. 152, 194103 (2020)                    **
 **                                                                           **
 *******************************************************************************

 DFT| Spin restricted Kohn-Sham (RKS) calculation                            RKS
 DFT| Multiplicity                                                             1
 DFT| Number of spin states                                                    1
 DFT| Charge                                                                   0
 DFT| Self-interaction correction (SIC)                                       NO
 DFT| Cutoffs: density                                              1.000000E-10
 DFT|          gradient                                             1.000000E-10
 DFT|          tau                                                  1.000000E-10
 DFT|          cutoff_smoothing_range                               0.000000E+00
 DFT| XC density smoothing                                                  NONE
 DFT| XC derivatives                                                          PW

 FUNCTIONAL| PBE:
 FUNCTIONAL| J.P.Perdew, K.Burke, M.Ernzerhof, Phys. Rev. Letter, vol. 77, n 18,
 FUNCTIONAL|  pp. 3865-3868, (1996)sx=0.000sc=1.000{spin unpolarized}           
 FUNCTIONAL| XWPBE:
 FUNCTIONAL| Jochen Heyd and Gustavo E. Scuseria, J. Chem. Phys., 120, 7274 {LDA
 FUNCTIONAL|  version}                                                          


 QS| Method:                                                                 GPW
 QS| Density plane wave grid type                        NON-SPHERICAL FULLSPACE
 QS| Number of grid levels:                                                    4
 QS| Density cutoff [a.u.]:                                                300.0
 QS| Multi grid cutoff [a.u.]: 1) grid level                               300.0
 QS|                           2) grid level                               100.0
 QS|                           3) grid level                                33.3
 QS|                           4) grid level                                11.1
 QS| Grid level progression factor:                                          3.0
 QS| Relative density cutoff [a.u.]:                                        30.0
 QS| Interaction thresholds: eps_pgf_orb:                                1.0E-06
 QS|                         eps_filter_matrix:                          0.0E+00
 QS|                         eps_core_charge:                            1.0E-14
 QS|                         eps_rho_gspace:                             1.0E-12
 QS|                         eps_rho_rspace:                             1.0E-12
 QS|                         eps_gvg_rspace:                             1.0E-06
 QS|                         eps_ppl:                                    1.0E-02
 QS|                         eps_ppnl:                                   1.0E-08

 ADMM| Specific ADMM type specified                                        ADMMS
 ADMM| Density matrix purification method                                   NONE
 ADMM| Orbital projection with charge constrain
 ADMM| Use Merlot (2014) scaling model
 ADMM| eps_filter                                                0.000000000    
 ADMM| Exchange functional in correction term                            (W)PBEX



 ATOMIC KIND INFORMATION

  1. Atomic kind: Mg                                    Number of atoms:      27

     Orbital Basis Set                                        DZVP-MOLOPT-SR-GTH

       Number of orbital shell sets:                                           1
       Number of orbital shells:                                               5
       Number of primitive Cartesian functions:                                7
       Number of Cartesian basis functions:                                    9
       Number of spherical basis functions:                                    9
       Norm type:                                                              2

       Normalised Cartesian orbitals:

                        Set   Shell   Orbital            Exponent    Coefficient

                          1       1    2s               30.653048       0.484709
                                                        12.924389       0.839969
                                                         4.968377      -0.417560
                                                         1.851828      -0.696909
                                                         0.673565      -0.194648
                                                         0.168626      -0.002319
                                                         0.059428      -0.000952

                          1       2    3s               30.653048      -0.080058
                                                        12.924389      -0.163891
                                                         4.968377       0.094488
                                                         1.851828       0.194057
                                                         0.673565       0.125641
                                                         0.168626      -0.090163
                                                         0.059428      -0.059314

                          1       3    4s               30.653048      -0.159449
                                                        12.924389       0.095780
                                                         4.968377      -0.082563
                                                         1.851828      -0.227029
                                                         0.673565      -0.181982
                                                         0.168626       0.392873
                                                         0.059428      -0.158429

                          1       4    3px              30.653048       4.106765
                                                        12.924389       5.139385
                                                         4.968377       3.494459
                                                         1.851828       1.337175
                                                         0.673565       0.228011
                                                         0.168626       0.004292
                                                         0.059428      -0.000255
                          1       4    3py              30.653048       4.106765
                                                        12.924389       5.139385
                                                         4.968377       3.494459
                                                         1.851828       1.337175
                                                         0.673565       0.228011
                                                         0.168626       0.004292
                                                         0.059428      -0.000255
                          1       4    3pz              30.653048       4.106765
                                                        12.924389       5.139385
                                                         4.968377       3.494459
                                                         1.851828       1.337175
                                                         0.673565       0.228011
                                                         0.168626       0.004292
                                                         0.059428      -0.000255

                          1       5    4px              30.653048       0.529694
                                                        12.924389       0.985876
                                                         4.968377       0.526402
                                                         1.851828       0.343987
                                                         0.673565      -0.055607
                                                         0.168626      -0.084885
                                                         0.059428      -0.021282
                          1       5    4py              30.653048       0.529694
                                                        12.924389       0.985876
                                                         4.968377       0.526402
                                                         1.851828       0.343987
                                                         0.673565      -0.055607
                                                         0.168626      -0.084885
                                                         0.059428      -0.021282
                          1       5    4pz              30.653048       0.529694
                                                        12.924389       0.985876
                                                         4.968377       0.526402
                                                         1.851828       0.343987
                                                         0.673565      -0.055607
                                                         0.168626      -0.084885
                                                         0.059428      -0.021282

     Auxiliary Fit Basis Set                                              cpFIT3

       Number of orbital shell sets:                                           5
       Number of orbital shells:                                               6
       Number of primitive Cartesian functions:                                9
       Number of Cartesian basis functions:                                   12
       Number of spherical basis functions:                                   12
       Norm type:                                                              2

       Normalised Cartesian orbitals:

                        Set   Shell   Orbital            Exponent    Coefficient

                          1       1    1s                0.075120       0.102265

                          2       1    1px               0.135000       0.116643
                          2       1    1py               0.135000       0.116643
                          2       1    1pz               0.135000       0.116643

                          3       1    1px               0.707310       0.924597
                          3       1    1py               0.707310       0.924597
                          3       1    1pz               0.707310       0.924597

                          4       1    1s                0.819940       0.802466
                                                         2.392760      -1.219414
                                                        19.716310       5.025550

                          4       2    2s                0.819940       0.403106
                                                         2.392760       0.556153
                                                        19.716310      -0.285651

                          5       1    1px               2.295810       2.553185
                                                         7.216630       6.581243
                                                        23.098780       8.366428
                          5       1    1py               2.295810       2.553185
                                                         7.216630       6.581243
                                                        23.098780       8.366428
                          5       1    1pz               2.295810       2.553185
                                                         7.216630       6.581243
                                                        23.098780       8.366428

     RI HFX Basis Set                                           Mg-RI-AUX-cpFIT3

       Number of orbital shell sets:                                           1
       Number of orbital shells:                                              26
       Number of primitive Cartesian functions:                               10
       Number of Cartesian basis functions:                                   82
       Number of spherical basis functions:                                   74
       Norm type:                                                              2

       Normalised Cartesian orbitals:

                        Set   Shell   Orbital            Exponent    Coefficient

                          1       1    1s               29.801500       9.090519
                                                        16.556389       0.000000
                                                         9.197994       0.000000
                                                         5.109997       0.000000
                                                         2.838887       0.000000
                                                         1.577159       0.000000
                                                         0.876200       0.000000
                                                         0.486778       0.000000
                                                         0.270432       0.000000
                                                         0.150240       0.000000

                          1       2    2s               29.801500     -24.627162
                                                        16.556389      16.892645
                                                         9.197994       0.000000
                                                         5.109997       0.000000
                                                         2.838887       0.000000
                                                         1.577159       0.000000
                                                         0.876200       0.000000
                                                         0.486778       0.000000
                                                         0.270432       0.000000
                                                         0.150240       0.000000

                          1       3    3s               29.801500      36.919100
                                                        16.556389     -49.634589
                                                         9.197994      18.758421
                                                         5.109997       0.000000
                                                         2.838887       0.000000
                                                         1.577159       0.000000
                                                         0.876200       0.000000
                                                         0.486778       0.000000
                                                         0.270432       0.000000
                                                         0.150240       0.000000

                          1       4    4s               29.801500     -40.553758
                                                        16.556389      76.319672
                                                         9.197994     -56.553994
                                                         5.109997      16.201216
                                                         2.838887       0.000000
                                                         1.577159       0.000000
                                                         0.876200       0.000000
                                                         0.486778       0.000000
                                                         0.270432       0.000000
                                                         0.150240       0.000000

                          1       5    5s               29.801500      37.399722
                                                        16.556389     -84.697839
                                                         9.197994      87.867935
                                                         5.109997     -49.372937
                                                         2.838887      12.239845
                                                         1.577159       0.000000
                                                         0.876200       0.000000
                                                         0.486778       0.000000
                                                         0.270432       0.000000
                                                         0.150240       0.000000

                          1       6    6s               29.801500     -31.250499
                                                        16.556389      78.470685
                                                         9.197994     -97.964319
                                                         5.109997      77.077883
                                                         2.838887     -37.489966
                                                         1.577159       8.597999
                                                         0.876200       0.000000
                                                         0.486778       0.000000
                                                         0.270432       0.000000
                                                         0.150240       0.000000

                          1       7    7s               29.801500      24.709971
                                                        16.556389     -65.711435
                                                         9.197994      90.956358
                                                         5.109997     -86.123369
                                                         2.838887      58.663816
                                                         1.577159     -26.401937
                                                         0.876200       5.804288
                                                         0.486778       0.000000
                                                         0.270432       0.000000
                                                         0.150240       0.000000

                          1       8    8s               29.801500     -18.948928
                                                        16.556389      52.013672
                                                         9.197994     -76.245042
                                                         5.109997      80.045076
                                                         2.838887     -65.619791
                                                         1.577159      41.362556
                                                         0.876200     -17.846668
                                                         0.486778       3.834064
                                                         0.270432       0.000000
                                                         0.150240       0.000000

                          1       9    9s               29.801500      14.287557
                                                        16.556389     -39.907961
                                                         9.197994      60.381723
                                                         5.109997     -67.131726
                                                         2.838887      61.019895
                                                         1.577159     -46.292854
                                                         0.876200      27.976821
                                                         0.486778     -11.796932
                                                         0.270432       2.502709
                                                         0.150240       0.000000

                          1      10   10s               29.801500     -10.673264
                                                        16.556389      30.098752
                                                         9.197994     -46.339901
                                                         5.109997      53.177254
                                                         2.838887     -51.188324
                                                         1.577159      43.059048
                                                         0.876200     -31.320703
                                                         0.486778      18.499223
                                                         0.270432      -7.703388
                                                         0.150240       1.623093

                          1      11    2px              29.801500      99.251651
                                                        16.556389       0.000000
                                                         9.197994       0.000000
                                                         5.109997       0.000000
                                                         2.838887       0.000000
                                                         1.577159       0.000000
                                                         0.876200       0.000000
                                                         0.486778       0.000000
                                                         0.270432       0.000000
                                                         0.150240       0.000000
                          1      11    2py              29.801500      99.251651
                                                        16.556389       0.000000
                                                         9.197994       0.000000
                                                         5.109997       0.000000
                                                         2.838887       0.000000
                                                         1.577159       0.000000
                                                         0.876200       0.000000
                                                         0.486778       0.000000
                                                         0.270432       0.000000
                                                         0.150240       0.000000
                          1      11    2pz              29.801500      99.251651
                                                        16.556389       0.000000
                                                         9.197994       0.000000
                                                         5.109997       0.000000
                                                         2.838887       0.000000
                                                         1.577159       0.000000
                                                         0.876200       0.000000
                                                         0.486778       0.000000
                                                         0.270432       0.000000
                                                         0.150240       0.000000

                          1      12    3px              29.801500    -203.765587
                                                        16.556389     108.710043
                                                         9.197994       0.000000
                                                         5.109997       0.000000
                                                         2.838887       0.000000
                                                         1.577159       0.000000
                                                         0.876200       0.000000
                                                         0.486778       0.000000
                                                         0.270432       0.000000
                                                         0.150240       0.000000
                          1      12    3py              29.801500    -203.765587
                                                        16.556389     108.710043
                                                         9.197994       0.000000
                                                         5.109997       0.000000
                                                         2.838887       0.000000
                                                         1.577159       0.000000
                                                         0.876200       0.000000
                                                         0.486778       0.000000
                                                         0.270432       0.000000
                                                         0.150240       0.000000
                          1      12    3pz              29.801500    -203.765587
                                                        16.556389     108.710043
                                                         9.197994       0.000000
                                                         5.109997       0.000000
                                                         2.838887       0.000000
                                                         1.577159       0.000000
                                                         0.876200       0.000000
                                                         0.486778       0.000000
                                                         0.270432       0.000000
                                                         0.150240       0.000000

                          1      13    4px              29.801500     257.642502
                                                        16.556389    -259.061816
                                                         9.197994      78.940700
                                                         5.109997       0.000000
                                                         2.838887       0.000000
                                                         1.577159       0.000000
                                                         0.876200       0.000000
                                                         0.486778       0.000000
                                                         0.270432       0.000000
                                                         0.150240       0.000000
                          1      13    4py              29.801500     257.642502
                                                        16.556389    -259.061816
                                                         9.197994      78.940700
                                                         5.109997       0.000000
                                                         2.838887       0.000000
                                                         1.577159       0.000000
                                                         0.876200       0.000000
                                                         0.486778       0.000000
                                                         0.270432       0.000000
                                                         0.150240       0.000000
                          1      13    4pz              29.801500     257.642502
                                                        16.556389    -259.061816
                                                         9.197994      78.940700
                                                         5.109997       0.000000
                                                         2.838887       0.000000
                                                         1.577159       0.000000
                                                         0.876200       0.000000
                                                         0.486778       0.000000
                                                         0.270432       0.000000
                                                         0.150240       0.000000

                          1      14    5px              29.801500    -253.056428
                                                        16.556389     344.588501
                                                         9.197994    -198.097131
                                                         5.109997      47.044768
                                                         2.838887       0.000000
                                                         1.577159       0.000000
                                                         0.876200       0.000000
                                                         0.486778       0.000000
                                                         0.270432       0.000000
                                                         0.150240       0.000000
                          1      14    5py              29.801500    -253.056428
                                                        16.556389     344.588501
                                                         9.197994    -198.097131
                                                         5.109997      47.044768
                                                         2.838887       0.000000
                                                         1.577159       0.000000
                                                         0.876200       0.000000
                                                         0.486778       0.000000
                                                         0.270432       0.000000
                                                         0.150240       0.000000
                          1      14    5pz              29.801500    -253.056428
                                                        16.556389     344.588501
                                                         9.197994    -198.097131
                                                         5.109997      47.044768
                                                         2.838887       0.000000
                                                         1.577159       0.000000
                                                         0.876200       0.000000
                                                         0.486778       0.000000
                                                         0.270432       0.000000
                                                         0.150240       0.000000

                          1      15    6px              29.801500     216.278630
                                                        16.556389    -345.604256
                                                         9.197994     269.161965
                                                         5.109997    -120.702806
                                                         2.838887      25.301269
                                                         1.577159       0.000000
                                                         0.876200       0.000000
                                                         0.486778       0.000000
                                                         0.270432       0.000000
                                                         0.150240       0.000000
                          1      15    6py              29.801500     216.278630
                                                        16.556389    -345.604256
                                                         9.197994     269.161965
                                                         5.109997    -120.702806
                                                         2.838887      25.301269
                                                         1.577159       0.000000
                                                         0.876200       0.000000
                                                         0.486778       0.000000
                                                         0.270432       0.000000
                                                         0.150240       0.000000
                          1      15    6pz              29.801500     216.278630
                                                        16.556389    -345.604256
                                                         9.197994     269.161965
                                                         5.109997    -120.702806
                                                         2.838887      25.301269
                                                         1.577159       0.000000
                                                         0.876200       0.000000
                                                         0.486778       0.000000
                                                         0.270432       0.000000
                                                         0.150240       0.000000

                          1      16    7px              29.801500    -171.254943
                                                        16.556389     298.136622
                                                         9.197994    -272.494022
                                                         5.109997     165.611550
                                                         2.838887     -65.595344
                                                         1.577159      12.890412
                                                         0.876200       0.000000
                                                         0.486778       0.000000
                                                         0.270432       0.000000
                                                         0.150240       0.000000
                          1      16    7py              29.801500    -171.254943
                                                        16.556389     298.136622
                                                         9.197994    -272.494022
                                                         5.109997     165.611550
                                                         2.838887     -65.595344
                                                         1.577159      12.890412
                                                         0.876200       0.000000
                                                         0.486778       0.000000
                                                         0.270432       0.000000
                                                         0.150240       0.000000
                          1      16    7pz              29.801500    -171.254943
                                                        16.556389     298.136622
                                                         9.197994    -272.494022
                                                         5.109997     165.611550
                                                         2.838887     -65.595344
                                                         1.577159      12.890412
                                                         0.876200       0.000000
                                                         0.486778       0.000000
                                                         0.270432       0.000000
                                                         0.150240       0.000000

                          1      17    8px              29.801500     130.097675
                                                        16.556389    -237.090238
                                                         9.197994     236.070809
                                                         5.109997    -168.400216
                                                         2.838887      90.425360
                                                         1.577159     -33.591344
                                                         0.876200       6.382331
                                                         0.486778       0.000000
                                                         0.270432       0.000000
                                                         0.150240       0.000000
                          1      17    8py              29.801500     130.097675
                                                        16.556389    -237.090238
                                                         9.197994     236.070809
                                                         5.109997    -168.400216
                                                         2.838887      90.425360
                                                         1.577159     -33.591344
                                                         0.876200       6.382331
                                                         0.486778       0.000000
                                                         0.270432       0.000000
                                                         0.150240       0.000000
                          1      17    8pz              29.801500     130.097675
                                                        16.556389    -237.090238
                                                         9.197994     236.070809
                                                         5.109997    -168.400216
                                                         2.838887      90.425360
                                                         1.577159     -33.591344
                                                         0.876200       6.382331
                                                         0.486778       0.000000
                                                         0.270432       0.000000
                                                         0.150240       0.000000

                          1      18    9px              29.801500     -36.663716
                                                        16.556389      68.460692
                                                         9.197994     -71.353734
                                                         5.109997      55.452070
                                                         2.838887     -34.953202
                                                         1.577159      17.606759
                                                         0.876200      -6.325371
                                                         0.486778       1.180769
                                                         0.270432       0.105446
                                                         0.150240       0.050575
                          1      18    9py              29.801500     -36.663716
                                                        16.556389      68.460692
                                                         9.197994     -71.353734
                                                         5.109997      55.452070
                                                         2.838887     -34.953202
                                                         1.577159      17.606759
                                                         0.876200      -6.325371
                                                         0.486778       1.180769
                                                         0.270432       0.105446
                                                         0.150240       0.050575
                          1      18    9pz              29.801500     -36.663716
                                                        16.556389      68.460692
                                                         9.197994     -71.353734
                                                         5.109997      55.452070
                                                         2.838887     -34.953202
                                                         1.577159      17.606759
                                                         0.876200      -6.325371
                                                         0.486778       1.180769
                                                         0.270432       0.105446
                                                         0.150240       0.050575

                          1      19    3dx2             29.801500     625.642392
                                                        16.556389       0.000000
                                                         9.197994       0.000000
                                                         5.109997       0.000000
                                                         2.838887       0.000000
                                                         1.577159       0.000000
                                                         0.876200       0.000000
                                                         0.486778       0.000000
                                                         0.270432       0.000000
                                                         0.150240       0.000000
                          1      19    3dxy             29.801500    1083.644410
                                                        16.556389       0.000000
                                                         9.197994       0.000000
                                                         5.109997       0.000000
                                                         2.838887       0.000000
                                                         1.577159       0.000000
                                                         0.876200       0.000000
                                                         0.486778       0.000000
                                                         0.270432       0.000000
                                                         0.150240       0.000000
                          1      19    3dxz             29.801500    1083.644410
                                                        16.556389       0.000000
                                                         9.197994       0.000000
                                                         5.109997       0.000000
                                                         2.838887       0.000000
                                                         1.577159       0.000000
                                                         0.876200       0.000000
                                                         0.486778       0.000000
                                                         0.270432       0.000000
                                                         0.150240       0.000000
                          1      19    3dy2             29.801500     625.642392
                                                        16.556389       0.000000
                                                         9.197994       0.000000
                                                         5.109997       0.000000
                                                         2.838887       0.000000
                                                         1.577159       0.000000
                                                         0.876200       0.000000
                                                         0.486778       0.000000
                                                         0.270432       0.000000
                                                         0.150240       0.000000
                          1      19    3dyz             29.801500    1083.644410
                                                        16.556389       0.000000
                                                         9.197994       0.000000
                                                         5.109997       0.000000
                                                         2.838887       0.000000
                                                         1.577159       0.000000
                                                         0.876200       0.000000
                                                         0.486778       0.000000
                                                         0.270432       0.000000
                                                         0.150240       0.000000
                          1      19    3dz2             29.801500     625.642392
                                                        16.556389       0.000000
                                                         9.197994       0.000000
                                                         5.109997       0.000000
                                                         2.838887       0.000000
                                                         1.577159       0.000000
                                                         0.876200       0.000000
                                                         0.486778       0.000000
                                                         0.270432       0.000000
                                                         0.150240       0.000000

                          1      20    4dx2             29.801500   -1061.734961
                                                        16.556389     440.565490
                                                         9.197994       0.000000
                                                         5.109997       0.000000
                                                         2.838887       0.000000
                                                         1.577159       0.000000
                                                         0.876200       0.000000
                                                         0.486778       0.000000
                                                         0.270432       0.000000
                                                         0.150240       0.000000
                          1      20    4dxy             29.801500   -1838.978897
                                                        16.556389     763.081812
                                                         9.197994       0.000000
                                                         5.109997       0.000000
                                                         2.838887       0.000000
                                                         1.577159       0.000000
                                                         0.876200       0.000000
                                                         0.486778       0.000000
                                                         0.270432       0.000000
                                                         0.150240       0.000000
                          1      20    4dxz             29.801500   -1838.978897
                                                        16.556389     763.081812
                                                         9.197994       0.000000
                                                         5.109997       0.000000
                                                         2.838887       0.000000
                                                         1.577159       0.000000
                                                         0.876200       0.000000
                                                         0.486778       0.000000
                                                         0.270432       0.000000
                                                         0.150240       0.000000
                          1      20    4dy2             29.801500   -1061.734961
                                                        16.556389     440.565490
                                                         9.197994       0.000000
                                                         5.109997       0.000000
                                                         2.838887       0.000000
                                                         1.577159       0.000000
                                                         0.876200       0.000000
                                                         0.486778       0.000000
                                                         0.270432       0.000000
                                                         0.150240       0.000000
                          1      20    4dyz             29.801500   -1838.978897
                                                        16.556389     763.081812
                                                         9.197994       0.000000
                                                         5.109997       0.000000
                                                         2.838887       0.000000
                                                         1.577159       0.000000
                                                         0.876200       0.000000
                                                         0.486778       0.000000
                                                         0.270432       0.000000
                                                         0.150240       0.000000
                          1      20    4dz2             29.801500   -1061.734961
                                                        16.556389     440.565490
                                                         9.197994       0.000000
                                                         5.109997       0.000000
                                                         2.838887       0.000000
                                                         1.577159       0.000000
                                                         0.876200       0.000000
                                                         0.486778       0.000000
                                                         0.270432       0.000000
                                                         0.150240       0.000000

                          1      21    5dx2             29.801500    1180.168354
                                                        16.556389    -889.038884
                                                         9.197994     218.074629
                                                         5.109997       0.000000
                                                         2.838887       0.000000
                                                         1.577159       0.000000
                                                         0.876200       0.000000
                                                         0.486778       0.000000
                                                         0.270432       0.000000
                                                         0.150240       0.000000
                          1      21    5dxy             29.801500    2044.111551
                                                        16.556389   -1539.860516
                                                         9.197994     377.716337
                                                         5.109997       0.000000
                                                         2.838887       0.000000
                                                         1.577159       0.000000
                                                         0.876200       0.000000
                                                         0.486778       0.000000
                                                         0.270432       0.000000
                                                         0.150240       0.000000
                          1      21    5dxz             29.801500    2044.111551
                                                        16.556389   -1539.860516
                                                         9.197994     377.716337
                                                         5.109997       0.000000
                                                         2.838887       0.000000
                                                         1.577159       0.000000
                                                         0.876200       0.000000
                                                         0.486778       0.000000
                                                         0.270432       0.000000
                                                         0.150240       0.000000
                          1      21    5dy2             29.801500    1180.168354
                                                        16.556389    -889.038884
                                                         9.197994     218.074629
                                                         5.109997       0.000000
                                                         2.838887       0.000000
                                                         1.577159       0.000000
                                                         0.876200       0.000000
                                                         0.486778       0.000000
                                                         0.270432       0.000000
                                                         0.150240       0.000000
                          1      21    5dyz             29.801500    2044.111551
                                                        16.556389   -1539.860516
                                                         9.197994     377.716337
                                                         5.109997       0.000000
                                                         2.838887       0.000000
                                                         1.577159       0.000000
                                                         0.876200       0.000000
                                                         0.486778       0.000000
                                                         0.270432       0.000000
                                                         0.150240       0.000000
                          1      21    5dz2             29.801500    1180.168354
                                                        16.556389    -889.038884
                                                         9.197994     218.074629
                                                         5.109997       0.000000
                                                         2.838887       0.000000
                                                         1.577159       0.000000
                                                         0.876200       0.000000
                                                         0.486778       0.000000
                                                         0.270432       0.000000
                                                         0.150240       0.000000

                          1      22    6dx2             29.801500   -1060.597804
                                                        16.556389    1049.370481
                                                         9.197994    -467.975504
                                                         5.109997      91.794166
                                                         2.838887       0.000000
                                                         1.577159       0.000000
                                                         0.876200       0.000000
                                                         0.486778       0.000000
                                                         0.270432       0.000000
                                                         0.150240       0.000000
                          1      22    6dxy             29.801500   -1837.009283
                                                        16.556389    1817.562989
                                                         9.197994    -810.557350
                                                         5.109997     158.992159
                                                         2.838887       0.000000
                                                         1.577159       0.000000
                                                         0.876200       0.000000
                                                         0.486778       0.000000
                                                         0.270432       0.000000
                                                         0.150240       0.000000
                          1      22    6dxz             29.801500   -1837.009283
                                                        16.556389    1817.562989
                                                         9.197994    -810.557350
                                                         5.109997     158.992159
                                                         2.838887       0.000000
                                                         1.577159       0.000000
                                                         0.876200       0.000000
                                                         0.486778       0.000000
                                                         0.270432       0.000000
                                                         0.150240       0.000000
                          1      22    6dy2             29.801500   -1060.597804
                                                        16.556389    1049.370481
                                                         9.197994    -467.975504
                                                         5.109997      91.794166
                                                         2.838887       0.000000
                                                         1.577159       0.000000
                                                         0.876200       0.000000
                                                         0.486778       0.000000
                                                         0.270432       0.000000
                                                         0.150240       0.000000
                          1      22    6dyz             29.801500   -1837.009283
                                                        16.556389    1817.562989
                                                         9.197994    -810.557350
                                                         5.109997     158.992159
                                                         2.838887       0.000000
                                                         1.577159       0.000000
                                                         0.876200       0.000000
                                                         0.486778       0.000000
                                                         0.270432       0.000000
                                                         0.150240       0.000000
                          1      22    6dz2             29.801500   -1060.597804
                                                        16.556389    1049.370481
                                                         9.197994    -467.975504
                                                         5.109997      91.794166
                                                         2.838887       0.000000
                                                         1.577159       0.000000
                                                         0.876200       0.000000
                                                         0.486778       0.000000
                                                         0.270432       0.000000
                                                         0.150240       0.000000

                          1      23    7dx2             29.801500     851.317334
                                                        16.556389    -966.480480
                                                         9.197994     566.400731
                                                         5.109997    -202.233613
                                                         2.838887      35.640750
                                                         1.577159       0.000000
                                                         0.876200       0.000000
                                                         0.486778       0.000000
                                                         0.270432       0.000000
                                                         0.150240       0.000000
                          1      23    7dxy             29.801500    1474.524876
                                                        16.556389   -1673.993296
                                                         9.197994     981.034844
                                                         5.109997    -350.278893
                                                         2.838887      61.731590
                                                         1.577159       0.000000
                                                         0.876200       0.000000
                                                         0.486778       0.000000
                                                         0.270432       0.000000
                                                         0.150240       0.000000
                          1      23    7dxz             29.801500    1474.524876
                                                        16.556389   -1673.993296
                                                         9.197994     981.034844
                                                         5.109997    -350.278893
                                                         2.838887      61.731590
                                                         1.577159       0.000000
                                                         0.876200       0.000000
                                                         0.486778       0.000000
                                                         0.270432       0.000000
                                                         0.150240       0.000000
                          1      23    7dy2             29.801500     851.317334
                                                        16.556389    -966.480480
                                                         9.197994     566.400731
                                                         5.109997    -202.233613
                                                         2.838887      35.640750
                                                         1.577159       0.000000
                                                         0.876200       0.000000
                                                         0.486778       0.000000
                                                         0.270432       0.000000
                                                         0.150240       0.000000
                          1      23    7dyz             29.801500    1474.524876
                                                        16.556389   -1673.993296
                                                         9.197994     981.034844
                                                         5.109997    -350.278893
                                                         2.838887      61.731590
                                                         1.577159       0.000000
                                                         0.876200       0.000000
                                                         0.486778       0.000000
                                                         0.270432       0.000000
                                                         0.150240       0.000000
                          1      23    7dz2             29.801500     851.317334
                                                        16.556389    -966.480480
                                                         9.197994     566.400731
                                                         5.109997    -202.233613
                                                         2.838887      35.640750
                                                         1.577159       0.000000
                                                         0.876200       0.000000
                                                         0.486778       0.000000
                                                         0.270432       0.000000
                                                         0.150240       0.000000

                          1      24    8dx2             29.801500    -643.656127
                                                        16.556389     784.083110
                                                         9.197994    -527.313127
                                                         5.109997     247.549641
                                                         2.838887     -79.479853
                                                         1.577159      13.284277
                                                         0.876200       0.000000
                                                         0.486778       0.000000
                                                         0.270432       0.000000
                                                         0.150240       0.000000
                          1      24    8dxy             29.801500   -1114.845114
                                                        16.556389    1358.071784
                                                         9.197994    -913.333127
                                                         5.109997     428.768556
                                                         2.838887    -137.663143
                                                         1.577159      23.009042
                                                         0.876200       0.000000
                                                         0.486778       0.000000
                                                         0.270432       0.000000
                                                         0.150240       0.000000
                          1      24    8dxz             29.801500   -1114.845114
                                                        16.556389    1358.071784
                                                         9.197994    -913.333127
                                                         5.109997     428.768556
                                                         2.838887    -137.663143
                                                         1.577159      23.009042
                                                         0.876200       0.000000
                                                         0.486778       0.000000
                                                         0.270432       0.000000
                                                         0.150240       0.000000
                          1      24    8dy2             29.801500    -643.656127
                                                        16.556389     784.083110
                                                         9.197994    -527.313127
                                                         5.109997     247.549641
                                                         2.838887     -79.479853
                                                         1.577159      13.284277
                                                         0.876200       0.000000
                                                         0.486778       0.000000
                                                         0.270432       0.000000
                                                         0.150240       0.000000
                          1      24    8dyz             29.801500   -1114.845114
                                                        16.556389    1358.071784
                                                         9.197994    -913.333127
                                                         5.109997     428.768556
                                                         2.838887    -137.663143
                                                         1.577159      23.009042
                                                         0.876200       0.000000
                                                         0.486778       0.000000
                                                         0.270432       0.000000
                                                         0.150240       0.000000
                          1      24    8dz2             29.801500    -643.656127
                                                        16.556389     784.083110
                                                         9.197994    -527.313127
                                                         5.109997     247.549641
                                                         2.838887     -79.479853
                                                         1.577159      13.284277
                                                         0.876200       0.000000
                                                         0.486778       0.000000
                                                         0.270432       0.000000
                                                         0.150240       0.000000

                          1      25    9dx2             29.801500     471.656814
                                                        16.556389    -595.653521
                                                         9.197994     429.831967
                                                         5.109997    -231.605759
                                                         2.838887      97.807772
                                                         1.577159     -29.797346
                                                         0.876200       4.850091
                                                         0.486778       0.000000
                                                         0.270432       0.000000
                                                         0.150240       0.000000
                          1      25    9dxy             29.801500     816.933566
                                                        16.556389   -1031.702162
                                                         9.197994     744.490806
                                                         5.109997    -401.152941
                                                         2.838887     169.408031
                                                         1.577159     -51.610517
                                                         0.876200       8.400604
                                                         0.486778       0.000000
                                                         0.270432       0.000000
                                                         0.150240       0.000000
                          1      25    9dxz             29.801500     816.933566
                                                        16.556389   -1031.702162
                                                         9.197994     744.490806
                                                         5.109997    -401.152941
                                                         2.838887     169.408031
                                                         1.577159     -51.610517
                                                         0.876200       8.400604
                                                         0.486778       0.000000
                                                         0.270432       0.000000
                                                         0.150240       0.000000
                          1      25    9dy2             29.801500     471.656814
                                                        16.556389    -595.653521
                                                         9.197994     429.831967
                                                         5.109997    -231.605759
                                                         2.838887      97.807772
                                                         1.577159     -29.797346
                                                         0.876200       4.850091
                                                         0.486778       0.000000
                                                         0.270432       0.000000
                                                         0.150240       0.000000
                          1      25    9dyz             29.801500     816.933566
                                                        16.556389   -1031.702162
                                                         9.197994     744.490806
                                                         5.109997    -401.152941
                                                         2.838887     169.408031
                                                         1.577159     -51.610517
                                                         0.876200       8.400604
                                                         0.486778       0.000000
                                                         0.270432       0.000000
                                                         0.150240       0.000000
                          1      25    9dz2             29.801500     471.656814
                                                        16.556389    -595.653521
                                                         9.197994     429.831967
                                                         5.109997    -231.605759
                                                         2.838887      97.807772
                                                         1.577159     -29.797346
                                                         0.876200       4.850091
                                                         0.486778       0.000000
                                                         0.270432       0.000000
                                                         0.150240       0.000000

                          1      26   10dx2             29.801500    -127.358270
                                                        16.556389     163.822161
                                                         9.197994    -122.551513
                                                         5.109997      70.858363
                                                         2.838887     -34.350918
                                                         1.577159      13.768127
                                                         0.876200      -4.085980
                                                         0.486778       0.656287
                                                         0.270432       0.062514
                                                         0.150240       0.022349
                          1      26   10dxy             29.801500    -220.590994
                                                        16.556389     283.748306
                                                         9.197994    -212.265446
                                                         5.109997     122.730285
                                                         2.838887     -59.497535
                                                         1.577159      23.847096
                                                         0.876200      -7.077126
                                                         0.486778       1.136722
                                                         0.270432       0.108278
                                                         0.150240       0.038709
                          1      26   10dxz             29.801500    -220.590994
                                                        16.556389     283.748306
                                                         9.197994    -212.265446
                                                         5.109997     122.730285
                                                         2.838887     -59.497535
                                                         1.577159      23.847096
                                                         0.876200      -7.077126
                                                         0.486778       1.136722
                                                         0.270432       0.108278
                                                         0.150240       0.038709
                          1      26   10dy2             29.801500    -127.358270
                                                        16.556389     163.822161
                                                         9.197994    -122.551513
                                                         5.109997      70.858363
                                                         2.838887     -34.350918
                                                         1.577159      13.768127
                                                         0.876200      -4.085980
                                                         0.486778       0.656287
                                                         0.270432       0.062514
                                                         0.150240       0.022349
                          1      26   10dyz             29.801500    -220.590994
                                                        16.556389     283.748306
                                                         9.197994    -212.265446
                                                         5.109997     122.730285
                                                         2.838887     -59.497535
                                                         1.577159      23.847096
                                                         0.876200      -7.077126
                                                         0.486778       1.136722
                                                         0.270432       0.108278
                                                         0.150240       0.038709
                          1      26   10dz2             29.801500    -127.358270
                                                        16.556389     163.822161
                                                         9.197994    -122.551513
                                                         5.109997      70.858363
                                                         2.838887     -34.350918
                                                         1.577159      13.768127
                                                         0.876200      -4.085980
                                                         0.486778       0.656287
                                                         0.270432       0.062514
                                                         0.150240       0.022349

       Atomic covalent radius [Angstrom]:                                  1.360

       Atomic van der Waals radius [Angstrom]:                             1.730

     GTH Potential information for                                       GTH-PBE

       Description:                       Goedecker-Teter-Hutter pseudopotential
                                           Goedecker et al., PRB 54, 1703 (1996)
                                          Hartwigsen et al., PRB 58, 3641 (1998)
                                                      Krack, TCA 114, 145 (2005)

       Gaussian exponent of the core charge distribution:              13.456923
       Electronic configuration (s p d ...):                               4   6

       Parameters of the local part of the GTH pseudopotential:

                          rloc        C1          C2          C3          C4
                        0.192758  -20.575391    3.040167

       Parameters of the non-local part of the GTH pseudopotential:

                   l      r(l)      h(i,j,l)

                   0    0.141407   41.047292
                   1    0.102932   -9.985626

  2. Atomic kind: O                                     Number of atoms:      27

     Orbital Basis Set                                        DZVP-MOLOPT-SR-GTH

       Number of orbital shell sets:                                           1
       Number of orbital shells:                                               5
       Number of primitive Cartesian functions:                                5
       Number of Cartesian basis functions:                                   14
       Number of spherical basis functions:                                   13
       Norm type:                                                              2

       Normalised Cartesian orbitals:

                        Set   Shell   Orbital            Exponent    Coefficient

                          1       1    2s               10.389228       0.396646
                                                         3.849621       0.208811
                                                         1.388401      -0.301641
                                                         0.496955      -0.274061
                                                         0.162492      -0.033677

                          1       2    3s               10.389228       0.303673
                                                         3.849621       0.240943
                                                         1.388401      -0.313066
                                                         0.496955      -0.043055
                                                         0.162492       0.213991

                          1       3    3px              10.389228      -1.530415
                                                         3.849621      -1.371928
                                                         1.388401      -0.761951
                                                         0.496955      -0.253695
                                                         0.162492      -0.035541
                          1       3    3py              10.389228      -1.530415
                                                         3.849621      -1.371928
                                                         1.388401      -0.761951
                                                         0.496955      -0.253695
                                                         0.162492      -0.035541
                          1       3    3pz              10.389228      -1.530415
                                                         3.849621      -1.371928
                                                         1.388401      -0.761951
                                                         0.496955      -0.253695
                                                         0.162492      -0.035541

                          1       4    4px              10.389228      -0.565392
                                                         3.849621      -0.038231
                                                         1.388401      -0.382373
                                                         0.496955       0.179070
                                                         0.162492       0.122714
                          1       4    4py              10.389228      -0.565392
                                                         3.849621      -0.038231
                                                         1.388401      -0.382373
                                                         0.496955       0.179070
                                                         0.162492       0.122714
                          1       4    4pz              10.389228      -0.565392
                                                         3.849621      -0.038231
                                                         1.388401      -0.382373
                                                         0.496955       0.179070
                                                         0.162492       0.122714

                          1       5    4dx2             10.389228       1.867377
                                                         3.849621       0.670994
                                                         1.388401       1.353441
                                                         0.496955       0.273538
                                                         0.162492       0.006620
                          1       5    4dxy             10.389228       3.234392
                                                         3.849621       1.162195
                                                         1.388401       2.344229
                                                         0.496955       0.473781
                                                         0.162492       0.011466
                          1       5    4dxz             10.389228       3.234392
                                                         3.849621       1.162195
                                                         1.388401       2.344229
                                                         0.496955       0.473781
                                                         0.162492       0.011466
                          1       5    4dy2             10.389228       1.867377
                                                         3.849621       0.670994
                                                         1.388401       1.353441
                                                         0.496955       0.273538
                                                         0.162492       0.006620
                          1       5    4dyz             10.389228       3.234392
                                                         3.849621       1.162195
                                                         1.388401       2.344229
                                                         0.496955       0.473781
                                                         0.162492       0.011466
                          1       5    4dz2             10.389228       1.867377
                                                         3.849621       0.670994
                                                         1.388401       1.353441
                                                         0.496955       0.273538
                                                         0.162492       0.006620

     Auxiliary Fit Basis Set                                              cpFIT3

       Number of orbital shell sets:                                           5
       Number of orbital shells:                                               5
       Number of primitive Cartesian functions:                                7
       Number of Cartesian basis functions:                                   14
       Number of spherical basis functions:                                   13
       Norm type:                                                              2

       Normalised Cartesian orbitals:

                        Set   Shell   Orbital            Exponent    Coefficient

                          1       1    1s                0.270610       0.267404

                          2       1    1px               0.310400       0.330250
                          2       1    1py               0.310400       0.330250
                          2       1    1pz               0.310400       0.330250

                          3       1    1s                0.884930       0.707256
                                                         8.504090      -0.906597

                          4       1    1dx2              1.000000       1.645923
                          4       1    1dxy              1.000000       2.850822
                          4       1    1dxz              1.000000       2.850822
                          4       1    1dy2              1.000000       1.645923
                          4       1    1dyz              1.000000       2.850822
                          4       1    1dz2              1.000000       1.645923

                          5       1    1px               1.382560       1.756990
                                                         6.082640       3.818529
                          5       1    1py               1.382560       1.756990
                                                         6.082640       3.818529
                          5       1    1pz               1.382560       1.756990
                                                         6.082640       3.818529

     RI HFX Basis Set                                            O-RI-AUX-cpFIT3

       Number of orbital shell sets:                                           2
       Number of orbital shells:                                              18
       Number of primitive Cartesian functions:                                7
       Number of Cartesian basis functions:                                   64
       Number of spherical basis functions:                                   56
       Norm type:                                                              2

       Normalised Cartesian orbitals:

                        Set   Shell   Orbital            Exponent    Coefficient

                          1       1    1s               10.226720       4.075795
                                                         5.681511       0.000000
                                                         3.156395       0.000000
                                                         1.753553       0.000000
                                                         0.974196       0.000000
                                                         0.541220       0.000000

                          1       2    2s               10.226720     -11.041754
                                                         5.681511       7.573931
                                                         3.156395       0.000000
                                                         1.753553       0.000000
                                                         0.974196       0.000000
                                                         0.541220       0.000000

                          1       3    3s               10.226720      16.552926
                                                         5.681511     -22.254001
                                                         3.156395       8.410464
                                                         1.753553       0.000000
                                                         0.974196       0.000000
                                                         0.541220       0.000000

                          1       4    4s               10.226720     -18.182550
                                                         5.681511      34.218438
                                                         3.156395     -25.356363
                                                         1.753553       7.263924
                                                         0.974196       0.000000
                                                         0.541220       0.000000

                          1       5    5s               10.226720      16.768417
                                                         5.681511     -37.974845
                                                         3.156395      39.396179
                                                         1.753553     -22.136688
                                                         0.974196       5.487817
                                                         0.541220       0.000000

                          1       6    6s               10.226720     -14.011371
                                                         5.681511      35.182859
                                                         3.156395     -43.922961
                                                         1.753553      34.558387
                                                         0.974196     -16.808878
                                                         0.541220       3.854970

                          1       7    2px              10.226720      26.068170
                                                         5.681511       0.000000
                                                         3.156395       0.000000
                                                         1.753553       0.000000
                                                         0.974196       0.000000
                                                         0.541220       0.000000
                          1       7    2py              10.226720      26.068170
                                                         5.681511       0.000000
                                                         3.156395       0.000000
                                                         1.753553       0.000000
                                                         0.974196       0.000000
                                                         0.541220       0.000000
                          1       7    2pz              10.226720      26.068170
                                                         5.681511       0.000000
                                                         3.156395       0.000000
                                                         1.753553       0.000000
                                                         0.974196       0.000000
                                                         0.541220       0.000000

                          1       8    3px              10.226720     -53.518464
                                                         5.681511      28.552390
                                                         3.156395       0.000000
                                                         1.753553       0.000000
                                                         0.974196       0.000000
                                                         0.541220       0.000000
                          1       8    3py              10.226720     -53.518464
                                                         5.681511      28.552390
                                                         3.156395       0.000000
                                                         1.753553       0.000000
                                                         0.974196       0.000000
                                                         0.541220       0.000000
                          1       8    3pz              10.226720     -53.518464
                                                         5.681511      28.552390
                                                         3.156395       0.000000
                                                         1.753553       0.000000
                                                         0.974196       0.000000
                                                         0.541220       0.000000

                          1       9    4px              10.226720      67.669086
                                                         5.681511     -68.041865
                                                         3.156395      20.733555
                                                         1.753553       0.000000
                                                         0.974196       0.000000
                                                         0.541220       0.000000
                          1       9    4py              10.226720      67.669086
                                                         5.681511     -68.041865
                                                         3.156395      20.733555
                                                         1.753553       0.000000
                                                         0.974196       0.000000
                                                         0.541220       0.000000
                          1       9    4pz              10.226720      67.669086
                                                         5.681511     -68.041865
                                                         3.156395      20.733555
                                                         1.753553       0.000000
                                                         0.974196       0.000000
                                                         0.541220       0.000000

                          1      10    5px              10.226720     -66.464566
                                                         5.681511      90.505210
                                                         3.156395     -52.029660
                                                         1.753553      12.356177
                                                         0.974196       0.000000
                                                         0.541220       0.000000
                          1      10    5py              10.226720     -66.464566
                                                         5.681511      90.505210
                                                         3.156395     -52.029660
                                                         1.753553      12.356177
                                                         0.974196       0.000000
                                                         0.541220       0.000000
                          1      10    5pz              10.226720     -66.464566
                                                         5.681511      90.505210
                                                         3.156395     -52.029660
                                                         1.753553      12.356177
                                                         0.974196       0.000000
                                                         0.541220       0.000000

                          1      11    6px              10.226720      56.804980
                                                         5.681511     -90.771996
                                                         3.156395      70.694641
                                                         1.753553     -31.702256
                                                         0.974196       6.645308
                                                         0.541220       0.000000
                          1      11    6py              10.226720      56.804980
                                                         5.681511     -90.771996
                                                         3.156395      70.694641
                                                         1.753553     -31.702256
                                                         0.974196       6.645308
                                                         0.541220       0.000000
                          1      11    6pz              10.226720      56.804980
                                                         5.681511     -90.771996
                                                         3.156395      70.694641
                                                         1.753553     -31.702256
                                                         0.974196       6.645308
                                                         0.541220       0.000000

                          1      12    7px              10.226720     -44.979634
                                                         5.681511      78.304754
                                                         3.156395     -71.569796
                                                         1.753553      43.497413
                                                         0.974196     -17.228434
                                                         0.541220       3.385631
                          1      12    7py              10.226720     -44.979634
                                                         5.681511      78.304754
                                                         3.156395     -71.569796
                                                         1.753553      43.497413
                                                         0.974196     -17.228434
                                                         0.541220       3.385631
                          1      12    7pz              10.226720     -44.979634
                                                         5.681511      78.304754
                                                         3.156395     -71.569796
                                                         1.753553      43.497413
                                                         0.974196     -17.228434
                                                         0.541220       3.385631

                          1      13    3dx2             10.226720      96.260495
                                                         5.681511       0.000000
                                                         3.156395       0.000000
                                                         1.753553       0.000000
                                                         0.974196       0.000000
                                                         0.541220       0.000000
                          1      13    3dxy             10.226720     166.728068
                                                         5.681511       0.000000
                                                         3.156395       0.000000
                                                         1.753553       0.000000
                                                         0.974196       0.000000
                                                         0.541220       0.000000
                          1      13    3dxz             10.226720     166.728068
                                                         5.681511       0.000000
                                                         3.156395       0.000000
                                                         1.753553       0.000000
                                                         0.974196       0.000000
                                                         0.541220       0.000000
                          1      13    3dy2             10.226720      96.260495
                                                         5.681511       0.000000
                                                         3.156395       0.000000
                                                         1.753553       0.000000
                                                         0.974196       0.000000
                                                         0.541220       0.000000
                          1      13    3dyz             10.226720     166.728068
                                                         5.681511       0.000000
                                                         3.156395       0.000000
                                                         1.753553       0.000000
                                                         0.974196       0.000000
                                                         0.541220       0.000000
                          1      13    3dz2             10.226720      96.260495
                                                         5.681511       0.000000
                                                         3.156395       0.000000
                                                         1.753553       0.000000
                                                         0.974196       0.000000
                                                         0.541220       0.000000

                          1      14    4dx2             10.226720    -163.357110
                                                         5.681511      67.784812
                                                         3.156395       0.000000
                                                         1.753553       0.000000
                                                         0.974196       0.000000
                                                         0.541220       0.000000
                          1      14    4dxy             10.226720    -282.942814
                                                         5.681511     117.406739
                                                         3.156395       0.000000
                                                         1.753553       0.000000
                                                         0.974196       0.000000
                                                         0.541220       0.000000
                          1      14    4dxz             10.226720    -282.942814
                                                         5.681511     117.406739
                                                         3.156395       0.000000
                                                         1.753553       0.000000
                                                         0.974196       0.000000
                                                         0.541220       0.000000
                          1      14    4dy2             10.226720    -163.357110
                                                         5.681511      67.784812
                                                         3.156395       0.000000
                                                         1.753553       0.000000
                                                         0.974196       0.000000
                                                         0.541220       0.000000
                          1      14    4dyz             10.226720    -282.942814
                                                         5.681511     117.406739
                                                         3.156395       0.000000
                                                         1.753553       0.000000
                                                         0.974196       0.000000
                                                         0.541220       0.000000
                          1      14    4dz2             10.226720    -163.357110
                                                         5.681511      67.784812
                                                         3.156395       0.000000
                                                         1.753553       0.000000
                                                         0.974196       0.000000
                                                         0.541220       0.000000

                          1      15    5dx2             10.226720     181.579112
                                                         5.681511    -136.786324
                                                         3.156395      33.552668
                                                         1.753553       0.000000
                                                         0.974196       0.000000
                                                         0.541220       0.000000
                          1      15    5dxy             10.226720     314.504248
                                                         5.681511    -236.920863
                                                         3.156395      58.114926
                                                         1.753553       0.000000
                                                         0.974196       0.000000
                                                         0.541220       0.000000
                          1      15    5dxz             10.226720     314.504248
                                                         5.681511    -236.920863
                                                         3.156395      58.114926
                                                         1.753553       0.000000
                                                         0.974196       0.000000
                                                         0.541220       0.000000
                          1      15    5dy2             10.226720     181.579112
                                                         5.681511    -136.786324
                                                         3.156395      33.552668
                                                         1.753553       0.000000
                                                         0.974196       0.000000
                                                         0.541220       0.000000
                          1      15    5dyz             10.226720     314.504248
                                                         5.681511    -236.920863
                                                         3.156395      58.114926
                                                         1.753553       0.000000
                                                         0.974196       0.000000
                                                         0.541220       0.000000
                          1      15    5dz2             10.226720     181.579112
                                                         5.681511    -136.786324
                                                         3.156395      33.552668
                                                         1.753553       0.000000
                                                         0.974196       0.000000
                                                         0.541220       0.000000

                          1      16    6dx2             10.226720    -163.182148
                                                         5.681511     161.454727
                                                         3.156395     -72.002080
                                                         1.753553      14.123327
                                                         0.974196       0.000000
                                                         0.541220       0.000000
                          1      16    6dxy             10.226720    -282.639772
                                                         5.681511     279.647791
                                                         3.156395    -124.711261
                                                         1.753553      24.462319
                                                         0.974196       0.000000
                                                         0.541220       0.000000
                          1      16    6dxz             10.226720    -282.639772
                                                         5.681511     279.647791
                                                         3.156395    -124.711261
                                                         1.753553      24.462319
                                                         0.974196       0.000000
                                                         0.541220       0.000000
                          1      16    6dy2             10.226720    -163.182148
                                                         5.681511     161.454727
                                                         3.156395     -72.002080
                                                         1.753553      14.123327
                                                         0.974196       0.000000
                                                         0.541220       0.000000
                          1      16    6dyz             10.226720    -282.639772
                                                         5.681511     279.647791
                                                         3.156395    -124.711261
                                                         1.753553      24.462319
                                                         0.974196       0.000000
                                                         0.541220       0.000000
                          1      16    6dz2             10.226720    -163.182148
                                                         5.681511     161.454727
                                                         3.156395     -72.002080
                                                         1.753553      14.123327
                                                         0.974196       0.000000
                                                         0.541220       0.000000

                          1      17    7dx2             10.226720      72.919306
                                                         5.681511     -82.783568
                                                         3.156395      48.514868
                                                         1.753553     -17.322254
                                                         0.974196       3.052797
                                                         0.541220       0.312927
                          1      17    7dxy             10.226720     126.299944
                                                         5.681511    -143.385346
                                                         3.156395      84.030217
                                                         1.753553     -30.003023
                                                         0.974196       5.287599
                                                         0.541220       0.542005
                          1      17    7dxz             10.226720     126.299944
                                                         5.681511    -143.385346
                                                         3.156395      84.030217
                                                         1.753553     -30.003023
                                                         0.974196       5.287599
                                                         0.541220       0.542005
                          1      17    7dy2             10.226720      72.919306
                                                         5.681511     -82.783568
                                                         3.156395      48.514868
                                                         1.753553     -17.322254
                                                         0.974196       3.052797
                                                         0.541220       0.312927
                          1      17    7dyz             10.226720     126.299944
                                                         5.681511    -143.385346
                                                         3.156395      84.030217
                                                         1.753553     -30.003023
                                                         0.974196       5.287599
                                                         0.541220       0.542005
                          1      17    7dz2             10.226720      72.919306
                                                         5.681511     -82.783568
                                                         3.156395      48.514868
                                                         1.753553     -17.322254
                                                         0.974196       3.052797
                                                         0.541220       0.312927

                          2       1    4fx3              1.310400       2.704663
                          2       1    4fx2y             1.310400       6.047811
                          2       1    4fx2z             1.310400       6.047811
                          2       1    4fxy2             1.310400       6.047811
                          2       1    4fxyz             1.310400      10.475115
                          2       1    4fxz2             1.310400       6.047811
                          2       1    4fy3              1.310400       2.704663
                          2       1    4fy2z             1.310400       6.047811
                          2       1    4fyz2             1.310400       6.047811
                          2       1    4fz3              1.310400       2.704663

       Atomic covalent radius [Angstrom]:                                  0.730

       Atomic van der Waals radius [Angstrom]:                             1.520

     GTH Potential information for                                       GTH-PBE

       Description:                       Goedecker-Teter-Hutter pseudopotential
                                           Goedecker et al., PRB 54, 1703 (1996)
                                          Hartwigsen et al., PRB 58, 3641 (1998)
                                                      Krack, TCA 114, 145 (2005)

       Gaussian exponent of the core charge distribution:               8.360253
       Electronic configuration (s p d ...):                               2   4

       Parameters of the local part of the GTH pseudopotential:

                          rloc        C1          C2          C3          C4
                        0.244554  -16.667215    2.487311

       Parameters of the non-local part of the GTH pseudopotential:

                   l      r(l)      h(i,j,l)

                   0    0.220956   18.337458
                   1    0.211332


 MOLECULE KIND INFORMATION


 All atoms are their own molecule, skipping detailed information


 TOTAL NUMBERS AND MAXIMUM NUMBERS

  Total number of            - Atomic kinds:                                   2
                             - Atoms:                                         54
                             - Shell sets:                                    54
                             - Shells:                                       270
                             - Primitive Cartesian functions:                324
                             - Cartesian basis functions:                    621
                             - Spherical basis functions:                    594

  Maximum angular momentum of- Orbital basis functions:                        2
                             - Local part of the GTH pseudopotential:          2
                             - Non-local part of the GTH pseudopotential:      1

  AUX_FIT ADMM-Basis: 
  Total number of            - Shell sets:                                   270
                             - Shells:                                       297
                             - Primitive Cartesian functions:                432
                             - Cartesian basis functions:                    702
                             - Spherical basis functions:                    675
                               Maximum angular momentum                        2


 MODULE QUICKSTEP: ATOMIC COORDINATES IN ANGSTROM

   Atom Kind Element         X             Y             Z       Z(eff)     Mass
      1    1 Mg   12      0.000000      0.000000      0.000000  10.0000  24.3050
      2    2 O     8      2.108500      2.108500      2.108500   6.0000  15.9994
      3    1 Mg   12      2.108500      2.108500      0.000000  10.0000  24.3050
      4    2 O     8      4.217000      4.217000      2.108500   6.0000  15.9994
      5    1 Mg   12      4.217000      4.217000      0.000000  10.0000  24.3050
      6    2 O     8      6.325500      6.325500      2.108500   6.0000  15.9994
      7    1 Mg   12      2.108500      0.000000      2.108500  10.0000  24.3050
      8    2 O     8      4.217000      2.108500      4.217000   6.0000  15.9994
      9    1 Mg   12      4.217000      2.108500      2.108500  10.0000  24.3050
     10    2 O     8      6.325500      4.217000      4.217000   6.0000  15.9994
     11    1 Mg   12      6.325500      4.217000      2.108500  10.0000  24.3050
     12    2 O     8      8.434000      6.325500      4.217000   6.0000  15.9994
     13    1 Mg   12      4.217000      0.000000      4.217000  10.0000  24.3050
     14    2 O     8      6.325500      2.108500      6.325500   6.0000  15.9994
     15    1 Mg   12      6.325500      2.108500      4.217000  10.0000  24.3050
     16    2 O     8      8.434000      4.217000      6.325500   6.0000  15.9994
     17    1 Mg   12      8.434000      4.217000      4.217000  10.0000  24.3050
     18    2 O     8     10.542500      6.325500      6.325500   6.0000  15.9994
     19    1 Mg   12      0.000000      2.108500      2.108500  10.0000  24.3050
     20    2 O     8      2.108500      4.217000      4.217000   6.0000  15.9994
     21    1 Mg   12      2.108500      4.217000      2.108500  10.0000  24.3050
     22    2 O     8      4.217000      6.325500      4.217000   6.0000  15.9994
     23    1 Mg   12      4.217000      6.325500      2.108500  10.0000  24.3050
     24    2 O     8      6.325500      8.434000      4.217000   6.0000  15.9994
     25    1 Mg   12      2.108500      2.108500      4.217000  10.0000  24.3050
     26    2 O     8      4.217000      4.217000      6.325500   6.0000  15.9994
     27    1 Mg   12      4.217000      4.217000      4.217000  10.0000  24.3050
     28    2 O     8      6.325500      6.325500      6.325500   6.0000  15.9994
     29    1 Mg   12      6.325500      6.325500      4.217000  10.0000  24.3050
     30    2 O     8      8.434000      8.434000      6.325500   6.0000  15.9994
     31    1 Mg   12      4.217000      2.108500      6.325500  10.0000  24.3050
     32    2 O     8      6.325500      4.217000      8.434000   6.0000  15.9994
     33    1 Mg   12      6.325500      4.217000      6.325500  10.0000  24.3050
     34    2 O     8      8.434000      6.325500      8.434000   6.0000  15.9994
     35    1 Mg   12      8.434000      6.325500      6.325500  10.0000  24.3050
     36    2 O     8     10.542500      8.434000      8.434000   6.0000  15.9994
     37    1 Mg   12      0.000000      4.217000      4.217000  10.0000  24.3050
     38    2 O     8      2.108500      6.325500      6.325500   6.0000  15.9994
     39    1 Mg   12      2.108500      6.325500      4.217000  10.0000  24.3050
     40    2 O     8      4.217000      8.434000      6.325500   6.0000  15.9994
     41    1 Mg   12      4.217000      8.434000      4.217000  10.0000  24.3050
     42    2 O     8      6.325500     10.542500      6.325500   6.0000  15.9994
     43    1 Mg   12      2.108500      4.217000      6.325500  10.0000  24.3050
     44    2 O     8      4.217000      6.325500      8.434000   6.0000  15.9994
     45    1 Mg   12      4.217000      6.325500      6.325500  10.0000  24.3050
     46    2 O     8      6.325500      8.434000      8.434000   6.0000  15.9994
     47    1 Mg   12      6.325500      8.434000      6.325500  10.0000  24.3050
     48    2 O     8      8.434000     10.542500      8.434000   6.0000  15.9994
     49    1 Mg   12      4.217000      4.217000      8.434000  10.0000  24.3050
     50    2 O     8      6.325500      6.325500     10.542500   6.0000  15.9994
     51    1 Mg   12      6.325500      6.325500      8.434000  10.0000  24.3050
     52    2 O     8      8.434000      8.434000     10.542500   6.0000  15.9994
     53    1 Mg   12      8.434000      8.434000      8.434000  10.0000  24.3050
     54    2 O     8     10.542500     10.542500     10.542500   6.0000  15.9994



 SCF PARAMETERS         Density guess:                                    ATOMIC
                        --------------------------------------------------------
                        max_scf:                                              50
                        max_scf_history:                                       0
                        max_diis:                                              4
                        --------------------------------------------------------
                        eps_scf:                                        1.00E-06
                        eps_scf_history:                                0.00E+00
                        eps_diis:                                       1.00E-01
                        eps_eigval:                                     1.00E-05
                        --------------------------------------------------------
                        level_shift [a.u.]:                             0.000000
                        --------------------------------------------------------
                        Outer loop SCF in use 
                        No variables optimised in outer loop
                        eps_scf                                         1.00E-06
                        max_scf                                               50
                        No outer loop optimization
                        step_size                                       5.00E-01

 PW_GRID| Information for grid number                                          1
 PW_GRID| Grid distributed over                                    32 processors
 PW_GRID| Real space group dimensions                                    32    1
 PW_GRID| the grid is blocked:                                                NO
 PW_GRID| Cutoff [a.u.]                                                    300.0
 PW_GRID| spherical cutoff:                                                   NO
 PW_GRID|   Bounds   1            -67      67                Points:         135
 PW_GRID|   Bounds   2            -67      67                Points:         135
 PW_GRID|   Bounds   3            -67      67                Points:         135
 PW_GRID| Volume element (a.u.^3)  0.1388E-02     Volume (a.u.^3)      3415.9475
 PW_GRID| Grid span                                                    FULLSPACE
 PW_GRID|   Distribution                         Average         Max         Min
 PW_GRID|   G-Vectors                            76886.7       76950       76815
 PW_GRID|   G-Rays                                 569.5         570         569
 PW_GRID|   Real Space Points                    76886.7       91125       72900

 PW_GRID| Information for grid number                                          2
 PW_GRID| Number of the reference grid                                         1
 PW_GRID| Grid distributed over                                    32 processors
 PW_GRID| Real space group dimensions                                    32    1
 PW_GRID| the grid is blocked:                                                NO
 PW_GRID| Cutoff [a.u.]                                                    100.0
 PW_GRID| spherical cutoff:                                                   NO
 PW_GRID|   Bounds   1            -40      39                Points:          80
 PW_GRID|   Bounds   2            -40      39                Points:          80
 PW_GRID|   Bounds   3            -40      39                Points:          80
 PW_GRID| Volume element (a.u.^3)  0.6672E-02     Volume (a.u.^3)      3415.9475
 PW_GRID| Grid span                                                    FULLSPACE
 PW_GRID|   Distribution                         Average         Max         Min
 PW_GRID|   G-Vectors                            16000.0       16160       15920
 PW_GRID|   G-Rays                                 200.0         202         199
 PW_GRID|   Real Space Points                    16000.0       19200       12800

 PW_GRID| Information for grid number                                          3
 PW_GRID| Number of the reference grid                                         1
 PW_GRID| Grid distributed over                                    32 processors
 PW_GRID| Real space group dimensions                                    32    1
 PW_GRID| the grid is blocked:                                                NO
 PW_GRID| Cutoff [a.u.]                                                     33.3
 PW_GRID| spherical cutoff:                                                   NO
 PW_GRID|   Bounds   1            -22      22                Points:          45
 PW_GRID|   Bounds   2            -22      22                Points:          45
 PW_GRID|   Bounds   3            -22      22                Points:          45
 PW_GRID| Volume element (a.u.^3)  0.3749E-01     Volume (a.u.^3)      3415.9475
 PW_GRID| Grid span                                                    FULLSPACE
 PW_GRID|   Distribution                         Average         Max         Min
 PW_GRID|   G-Vectors                             2847.7        2925        2790
 PW_GRID|   G-Rays                                  63.3          65          62
 PW_GRID|   Real Space Points                     2847.7        4050        2025

 PW_GRID| Information for grid number                                          4
 PW_GRID| Number of the reference grid                                         1
 PW_GRID| Grid distributed over                                    32 processors
 PW_GRID| Real space group dimensions                                     4    8
 PW_GRID| the grid is blocked:                                                NO
 PW_GRID| Cutoff [a.u.]                                                     11.1
 PW_GRID| spherical cutoff:                                                   NO
 PW_GRID|   Bounds   1            -12      12                Points:          25
 PW_GRID|   Bounds   2            -12      12                Points:          25
 PW_GRID|   Bounds   3            -12      12                Points:          25
 PW_GRID| Volume element (a.u.^3)  0.2186         Volume (a.u.^3)      3415.9475
 PW_GRID| Grid span                                                    FULLSPACE
 PW_GRID|   Distribution                         Average         Max         Min
 PW_GRID|   G-Vectors                              488.3         525         475
 PW_GRID|   G-Rays                                  19.5          21          19
 PW_GRID|   Real Space Points                      488.3         700         450

 POISSON| Solver                                                        PERIODIC
 POISSON| Periodicity                                                        XYZ

 RS_GRID| Information for grid number                                          1
 RS_GRID|   Bounds   1            -67      67                Points:         135
 RS_GRID|   Bounds   2            -67      67                Points:         135
 RS_GRID|   Bounds   3            -67      67                Points:         135
 RS_GRID| Real space fully replicated
 RS_GRID| Group size                                                           1

 RS_GRID| Information for grid number                                          2
 RS_GRID|   Bounds   1            -40      39                Points:          80
 RS_GRID|   Bounds   2            -40      39                Points:          80
 RS_GRID|   Bounds   3            -40      39                Points:          80
 RS_GRID| Real space fully replicated
 RS_GRID| Group size                                                           1

 RS_GRID| Information for grid number                                          3
 RS_GRID|   Bounds   1            -22      22                Points:          45
 RS_GRID|   Bounds   2            -22      22                Points:          45
 RS_GRID|   Bounds   3            -22      22                Points:          45
 RS_GRID| Real space fully replicated
 RS_GRID| Group size                                                           1

 RS_GRID| Information for grid number                                          4
 RS_GRID|   Bounds   1            -12      12                Points:          25
 RS_GRID|   Bounds   2            -12      12                Points:          25
 RS_GRID|   Bounds   3            -12      12                Points:          25
 RS_GRID| Real space fully replicated
 RS_GRID| Group size                                                           1

 *** WARNING in hfx_types.F:2091 :: Periodic Hartree Fock calculation   ***
 *** requested with the use of a truncated or shortrange potential. The ***
 *** cutoff radius is larger than half the minimal cell dimension. This ***
 *** may lead to unphysical total energies. Reduce the cutoff radius in ***
 *** order to avoid possible problems.                                  ***


  HFX_INFO| Replica ID:                                                        1
  HFX_INFO| FRACTION:                                               0.2500000000
  HFX_INFO| Interaction Potential:                                    SHORTRANGE
  HFX_INFO| Omega:                                                  0.1100000000
  HFX_INFO| Cutoff Radius [angstrom]:                              20.0467199179
  HFX_RI_INFO| RI metric:                                             SHORTRANGE
  HFX_RI_INFO| Omega:                                               0.1100000000
  HFX_RI_INFO| Cutoff Radius [angstrom]:                           20.0467199179
  HFX_RI_INFO| RI flavor:                                                    RHO
  HFX_RI_INFO| EPS_FILTER                                                1.0E-09
  HFX_RI_INFO| EPS_FILTER 2-center                                       1.0E-12
  HFX_RI_INFO| EPS_FILTER storage                                        1.0E-11
  HFX_RI_INFO| EPS_FILTER MO                                             1.0E-12
  HFX_RI_INFO| EPS_PGF_ORB                                               1.0E-06
  HFX_RI_INFO| EPS_SCHWARZ:                                              1.0E-10
  HFX_RI_INFO| EPS_SCHWARZ_FORCES:                                       1.0E-08
  HFX_RI_INFO| Minimum block size                                              4
  HFX_RI_INFO| MO block size                                                  64
  HFX_RI_INFO| Memory reduction factor                                         3

 Number of electrons:                                                        432
 Number of occupied orbitals:                                                216
 Number of molecular orbitals:                                               216

 Number of orbital functions:                                                594
 Number of independent orbital functions:                                    594

 Extrapolation method: initial_guess

 Atomic guess: The first density matrix is obtained in terms of atomic orbitals
               and electronic configurations assigned to each atomic kind

 Guess for atomic kind: Mg

 Electronic structure
    Total number of core electrons                                          2.00
    Total number of valence electrons                                      10.00
    Total number of electrons                                              12.00
    Multiplicity                                                   not specified
    S   [  2.00] 2.00  2.00
    P      6.00
 

 *******************************************************************************
                  Iteration          Convergence                     Energy [au]
 *******************************************************************************
                          1        0.485354                     -62.902226664244
                          2        0.105692                     -62.921913697109
                          3        0.335819E-02                 -62.923394100147
                          4        0.696592E-04                 -62.923398953249
                          5        0.319399E-06                 -62.923398954581

 Energy components [Hartree]           Total Energy ::          -62.923398954581
                                        Band Energy ::          -16.036073473620
                                     Kinetic Energy ::           51.571533994436
                                   Potential Energy ::         -114.494932949017
                                      Virial (-V/T) ::            2.220118815185
                                        Core Energy ::         -104.170174203299
                                          XC Energy ::           -8.249975644758
                                     Coulomb Energy ::           49.496750893476
                       Total Pseudopotential Energy ::         -155.802053789472
                       Local Pseudopotential Energy ::         -154.930913553489
                    Nonlocal Pseudopotential Energy ::           -0.871140235983
                                        Confinement ::            0.603455917368

 Orbital energies  State     L     Occupation   Energy[a.u.]          Energy[eV]

                       1     0          2.000      -2.886409          -78.543171
                       2     0          2.000      -0.139325           -3.791224
 
                       1     1          6.000      -1.664101          -45.282493
 

 Total Electron Density at R=0:                                         0.000687

 Guess for atomic kind: O

 Electronic structure
    Total number of core electrons                                          2.00
    Total number of valence electrons                                       6.00
    Total number of electrons                                               8.00
    Multiplicity                                                   not specified
    S   [  2.00] 2.00
    P      4.00
 

 *******************************************************************************
                  Iteration          Convergence                     Energy [au]
 *******************************************************************************
                          1        0.702811                     -15.577904332270
                          2        0.612408                     -15.588447180504
                          3        0.955344E-02                 -15.655871208406
                          4        0.223754E-02                 -15.655885053552
                          5        0.157183E-02                 -15.655885461027
                          6        0.124953E-02                 -15.655885607150
                          7        0.312011E-06                 -15.655885858066

 Energy components [Hartree]           Total Energy ::          -15.655885858066
                                        Band Energy ::           -2.983128125584
                                     Kinetic Energy ::           11.754765134683
                                   Potential Energy ::          -27.410650992749
                                      Virial (-V/T) ::            2.331875684345
                                        Core Energy ::          -26.153522949072
                                          XC Energy ::           -3.157392363346
                                     Coulomb Energy ::           13.655029454351
                       Total Pseudopotential Energy ::          -37.943026860963
                       Local Pseudopotential Energy ::          -39.220419683052
                    Nonlocal Pseudopotential Energy ::            1.277392822089
                                        Confinement ::            0.347387772086

 Orbital energies  State     L     Occupation   Energy[a.u.]          Energy[eV]

                       1     0          2.000      -0.861522          -23.443215
 
                       1     1          4.000      -0.315021           -8.572154
 

 Total Electron Density at R=0:                                         0.000093
 Re-scaling the density matrix to get the right number of electrons
                  # Electrons              Trace(P)               Scaling factor
                          432               432.072                        1.000


 SCF WAVEFUNCTION OPTIMIZATION

  ----------------------------------- OT ---------------------------------------
  Minimizer      : DIIS                : direct inversion
                                         in the iterative subspace
                                         using   7 DIIS vectors
                                         safer DIIS on
  Preconditioner : FULL_SINGLE_INVERSE : inversion of 
                                         H + eS - 2*(Sc)(c^T*H*c+const)(Sc)^T
  Precond_solver : DEFAULT
  stepsize       :    0.08000000                  energy_gap     :    0.05000000
  eps_taylor     :   0.10000E-15                  max_taylor     :             4
  ----------------------------------- OT ---------------------------------------

  Step     Update method      Time    Convergence         Total energy    Change
  ------------------------------------------------------------------------------
  MEMORY_INFO| Memory for 3-center HFX integrals (compressed):       3692.66 MiB
  MEMORY_INFO| Compression factor:                                          2.73
     Occupancy of density matrix P:                           4.6E+05 / 100.000%
     Occupancy of 3c ints:                                    1.3E+09 /  78.324%
     Occupancy after contraction with K:                      1.3E+09 /  78.769%
     Occupancy after contraction with P:                      1.6E+09 / 100.000%
     Occupancy of Kohn-Sham matrix:                           4.6E+05 / 100.000%
     1 OT DIIS     0.80E-01  309.1     0.05201232     -2109.2603912300 -2.11E+03
     2 OT DIIS     0.80E-01   14.5     0.02550063     -2128.5353048419 -1.93E+01
     3 OT DIIS     0.80E-01   14.5     0.01572257     -2134.3645745906 -5.83E+00
     4 OT DIIS     0.80E-01   14.5     0.01130815     -2137.0246329649 -2.66E+00
     5 OT DIIS     0.80E-01   14.5     0.00871578     -2139.0313561993 -2.01E+00
     6 OT DIIS     0.80E-01   14.5     0.00701352     -2140.5855105140 -1.55E+00
     7 OT DIIS     0.80E-01   14.5     0.00544324     -2142.1233869031 -1.54E+00
     8 OT DIIS     0.80E-01   14.5     0.00451329     -2143.0432892220 -9.20E-01
     9 OT DIIS     0.80E-01   14.5     0.00392554     -2143.6133028852 -5.70E-01
    10 OT DIIS     0.80E-01   14.5     0.00315814     -2144.1153371546 -5.02E-01
    11 OT DIIS     0.80E-01   14.4     0.00278685     -2144.2882155441 -1.73E-01
    12 OT DIIS     0.80E-01   14.5     0.00194411     -2144.5787334855 -2.91E-01
    13 OT DIIS     0.80E-01   14.4     0.00143104     -2144.6603631701 -8.16E-02
    14 OT DIIS     0.80E-01   14.4     0.00122517     -2144.7316015600 -7.12E-02
    15 OT DIIS     0.80E-01   14.4     0.00079788     -2144.7799751895 -4.84E-02
    16 OT DIIS     0.80E-01   14.3     0.00079857     -2144.7900453704 -1.01E-02
    17 OT DIIS     0.80E-01   14.3     0.00055319     -2144.8032948882 -1.32E-02
    18 OT DIIS     0.80E-01   14.3     0.00039130     -2144.8155129018 -1.22E-02
    19 OT DIIS     0.80E-01   14.3     0.00027368     -2144.8233923361 -7.88E-03
    20 OT DIIS     0.80E-01   14.3     0.00021263     -2144.8269656030 -3.57E-03
    21 OT DIIS     0.80E-01   14.2     0.00016719     -2144.8291849198 -2.22E-03
    22 OT DIIS     0.80E-01   14.2     0.00013630     -2144.8305219294 -1.34E-03
    23 OT DIIS     0.80E-01   14.1     0.00011619     -2144.8313271440 -8.05E-04
    24 OT DIIS     0.80E-01   14.0     0.00010283     -2144.8318557198 -5.29E-04
    25 OT DIIS     0.80E-01   14.0     0.00009055     -2144.8323914400 -5.36E-04
    26 OT DIIS     0.80E-01   14.1     0.00007618     -2144.8329751673 -5.84E-04
    27 OT DIIS     0.80E-01   14.1     0.00006610     -2144.8334004664 -4.25E-04
    28 OT DIIS     0.80E-01   14.0     0.00005821     -2144.8337091875 -3.09E-04
    29 OT DIIS     0.80E-01   14.0     0.00005166     -2144.8339637770 -2.55E-04
    30 OT DIIS     0.80E-01   14.0     0.00004629     -2144.8341731839 -2.09E-04
    31 OT DIIS     0.80E-01   13.9     0.00004177     -2144.8343501186 -1.77E-04
    32 OT DIIS     0.80E-01   13.9     0.00003818     -2144.8344861395 -1.36E-04
    33 OT DIIS     0.80E-01   13.8     0.00003506     -2144.8346023421 -1.16E-04
    34 OT DIIS     0.80E-01   13.8     0.00003224     -2144.8347130572 -1.11E-04
    35 OT DIIS     0.80E-01   13.8     0.00003022     -2144.8347916567 -7.86E-05
    36 OT DIIS     0.80E-01   13.8     0.00002799     -2144.8348752230 -8.36E-05
    37 OT DIIS     0.80E-01   13.8     0.00002611     -2144.8349473104 -7.21E-05
    38 OT DIIS     0.80E-01   13.8     0.00002419     -2144.8350170864 -6.98E-05
    39 OT DIIS     0.80E-01   13.8     0.00002236     -2144.8350793201 -6.22E-05
    40 OT DIIS     0.80E-01   13.8     0.00002048     -2144.8351377027 -5.84E-05
    41 OT DIIS     0.80E-01   13.7     0.00001884     -2144.8351850144 -4.73E-05
    42 OT DIIS     0.80E-01   13.7     0.00001744     -2144.8352233336 -3.83E-05
    43 OT DIIS     0.80E-01   13.7     0.00001624     -2144.8352525993 -2.93E-05
    44 OT DIIS     0.80E-01   13.7     0.00001509     -2144.8352780654 -2.55E-05
    45 OT DIIS     0.80E-01   13.6     0.00001427     -2144.8352951789 -1.71E-05
    46 OT DIIS     0.80E-01   13.6     0.00001342     -2144.8353113419 -1.62E-05
    47 OT DIIS     0.80E-01   13.6     0.00001265     -2144.8353250859 -1.37E-05
    48 OT DIIS     0.80E-01   13.6     0.00001195     -2144.8353368560 -1.18E-05
    49 OT DIIS     0.80E-01   13.6     0.00001130     -2144.8353475713 -1.07E-05
    50 OT DIIS     0.80E-01   13.5     0.00001071     -2144.8353570867 -9.52E-06

  Leaving inner SCF loop after reaching    50 steps.


  Electronic density on regular grids:       -431.9999961855        0.0000038145
  Core density on regular grids:              431.9999999999       -0.0000000001
  Total charge density on r-space grids:        0.0000038145
  Total charge density g-space grids:           0.0000038145

  Overlap energy of the core charge distribution:               0.00000000000000
  Self energy of the core charge distribution:              -5072.56863174558384
  Core Hamiltonian energy:                                   1495.79035946262024
  Hartree energy:                                            1764.52035129217620
  Exchange-correlation energy:                               -260.19362494275390
  Hartree-Fock Exchange energy:                               -72.38381115315167

  Total energy:                                             -2144.83535708669297

  outer SCF iter =    1 RMS gradient =   0.11E-04 energy =      -2144.8353570867

  ----------------------------------- OT ---------------------------------------
  Minimizer      : DIIS                : direct inversion
                                         in the iterative subspace
                                         using   7 DIIS vectors
                                         safer DIIS on
  Preconditioner : FULL_SINGLE_INVERSE : inversion of 
                                         H + eS - 2*(Sc)(c^T*H*c+const)(Sc)^T
  Precond_solver : DEFAULT
  stepsize       :    0.08000000                  energy_gap     :    0.05000000
  eps_taylor     :   0.10000E-15                  max_taylor     :             4
  ----------------------------------- OT ---------------------------------------

  Step     Update method      Time    Convergence         Total energy    Change
  ------------------------------------------------------------------------------
     1 OT DIIS     0.80E-01   27.0     0.00008875     -2144.8353642892 -7.20E-06
     2 OT DIIS     0.80E-01   13.9     0.00005797     -2144.8354203608 -5.61E-05
     3 OT DIIS     0.80E-01   13.8     0.00004650     -2144.8354452635 -2.49E-05
     4 OT DIIS     0.80E-01   13.8     0.00003167     -2144.8354696685 -2.44E-05
     5 OT DIIS     0.80E-01   13.8     0.00001364     -2144.8354869362 -1.73E-05
     6 OT DIIS     0.80E-01   13.6     0.00000677     -2144.8354891702 -2.23E-06
     7 OT DIIS     0.80E-01   13.5     0.00000382     -2144.8354897472 -5.77E-07
     8 OT DIIS     0.80E-01   13.4     0.00000236     -2144.8354899647 -2.17E-07
     9 OT DIIS     0.80E-01   13.3     0.00000144     -2144.8354900564 -9.17E-08
    10 OT DIIS     0.80E-01   13.3     0.00000070     -2144.8354900910 -3.46E-08

  *** SCF run converged in    10 steps ***


  Electronic density on regular grids:       -431.9999961855        0.0000038145
  Core density on regular grids:              431.9999999999       -0.0000000001
  Total charge density on r-space grids:        0.0000038145
  Total charge density g-space grids:           0.0000038145

  Overlap energy of the core charge distribution:               0.00000000000000
  Self energy of the core charge distribution:              -5072.56863174558384
  Core Hamiltonian energy:                                   1495.78944315114131
  Hartree energy:                                            1764.52102963095149
  Exchange-correlation energy:                               -260.19355000147743
  Hartree-Fock Exchange energy:                               -72.38378112605332

  Total energy:                                             -2144.83549009102171

  outer SCF iter =    2 RMS gradient =   0.70E-06 energy =      -2144.8354900910
  outer SCF loop converged in   2 iterations or   60 steps


 !-----------------------------------------------------------------------------!
                     Mulliken Population Analysis

 #  Atom  Element  Kind  Atomic population                           Net charge
       1     Mg       1          8.771169                              1.228831
       2     O        2          7.228839                             -1.228839
       3     Mg       1          8.771175                              1.228825
       4     O        2          7.228835                             -1.228835
       5     Mg       1          8.771175                              1.228825
       6     O        2          7.228830                             -1.228830
       7     Mg       1          8.771175                              1.228825
       8     O        2          7.228831                             -1.228831
       9     Mg       1          8.771188                              1.228812
      10     O        2          7.228830                             -1.228830
      11     Mg       1          8.771177                              1.228823
      12     O        2          7.228830                             -1.228830
      13     Mg       1          8.771172                              1.228828
      14     O        2          7.228823                             -1.228823
      15     Mg       1          8.771170                              1.228830
      16     O        2          7.228827                             -1.228827
      17     Mg       1          8.771169                              1.228831
      18     O        2          7.228833                             -1.228833
      19     Mg       1          8.771165                              1.228835
      20     O        2          7.228822                             -1.228822
      21     Mg       1          8.771173                              1.228827
      22     O        2          7.228827                             -1.228827
      23     Mg       1          8.771173                              1.228827
      24     O        2          7.228831                             -1.228831
      25     Mg       1          8.771173                              1.228827
      26     O        2          7.228833                             -1.228833
      27     Mg       1          8.771172                              1.228828
      28     O        2          7.228829                             -1.228829
      29     Mg       1          8.771169                              1.228831
      30     O        2          7.228826                             -1.228826
      31     Mg       1          8.771167                              1.228833
      32     O        2          7.228826                             -1.228826
      33     Mg       1          8.771167                              1.228833
      34     O        2          7.228829                             -1.228829
      35     Mg       1          8.771168                              1.228832
      36     O        2          7.228820                             -1.228820
      37     Mg       1          8.771165                              1.228835
      38     O        2          7.228830                             -1.228830
      39     Mg       1          8.771166                              1.228834
      40     O        2          7.228833                             -1.228833
      41     Mg       1          8.771168                              1.228832
      42     O        2          7.228828                             -1.228828
      43     Mg       1          8.771172                              1.228828
      44     O        2          7.228828                             -1.228828
      45     Mg       1          8.771170                              1.228830
      46     O        2          7.228832                             -1.228832
      47     Mg       1          8.771174                              1.228826
      48     O        2          7.228830                             -1.228830
      49     Mg       1          8.771165                              1.228835
      50     O        2          7.228828                             -1.228828
      51     Mg       1          8.771171                              1.228829
      52     O        2          7.228829                             -1.228829
      53     Mg       1          8.771165                              1.228835
      54     O        2          7.228828                             -1.228828
 # Total charge                            432.000000                  0.000000

 !-----------------------------------------------------------------------------!

 !-----------------------------------------------------------------------------!
                           Hirshfeld Charges

  #Atom  Element  Kind  Ref Charge     Population                    Net charge
      1       Mg     1      10.000         10.572                        -0.572
      2       O      2       6.000          5.428                         0.572
      3       Mg     1      10.000         10.572                        -0.572
      4       O      2       6.000          5.428                         0.572
      5       Mg     1      10.000         10.572                        -0.572
      6       O      2       6.000          5.428                         0.572
      7       Mg     1      10.000         10.572                        -0.572
      8       O      2       6.000          5.428                         0.572
      9       Mg     1      10.000         10.572                        -0.572
     10       O      2       6.000          5.428                         0.572
     11       Mg     1      10.000         10.572                        -0.572
     12       O      2       6.000          5.428                         0.572
     13       Mg     1      10.000         10.572                        -0.572
     14       O      2       6.000          5.428                         0.572
     15       Mg     1      10.000         10.572                        -0.572
     16       O      2       6.000          5.428                         0.572
     17       Mg     1      10.000         10.572                        -0.572
     18       O      2       6.000          5.428                         0.572
     19       Mg     1      10.000         10.572                        -0.572
     20       O      2       6.000          5.428                         0.572
     21       Mg     1      10.000         10.572                        -0.572
     22       O      2       6.000          5.428                         0.572
     23       Mg     1      10.000         10.572                        -0.572
     24       O      2       6.000          5.428                         0.572
     25       Mg     1      10.000         10.572                        -0.572
     26       O      2       6.000          5.428                         0.572
     27       Mg     1      10.000         10.572                        -0.572
     28       O      2       6.000          5.428                         0.572
     29       Mg     1      10.000         10.572                        -0.572
     30       O      2       6.000          5.428                         0.572
     31       Mg     1      10.000         10.572                        -0.572
     32       O      2       6.000          5.428                         0.572
     33       Mg     1      10.000         10.572                        -0.572
     34       O      2       6.000          5.428                         0.572
     35       Mg     1      10.000         10.572                        -0.572
     36       O      2       6.000          5.428                         0.572
     37       Mg     1      10.000         10.572                        -0.572
     38       O      2       6.000          5.428                         0.572
     39       Mg     1      10.000         10.572                        -0.572
     40       O      2       6.000          5.428                         0.572
     41       Mg     1      10.000         10.572                        -0.572
     42       O      2       6.000          5.428                         0.572
     43       Mg     1      10.000         10.572                        -0.572
     44       O      2       6.000          5.428                         0.572
     45       Mg     1      10.000         10.572                        -0.572
     46       O      2       6.000          5.428                         0.572
     47       Mg     1      10.000         10.572                        -0.572
     48       O      2       6.000          5.428                         0.572
     49       Mg     1      10.000         10.572                        -0.572
     50       O      2       6.000          5.428                         0.572
     51       Mg     1      10.000         10.572                        -0.572
     52       O      2       6.000          5.428                         0.572
     53       Mg     1      10.000         10.572                        -0.572
     54       O      2       6.000          5.428                         0.572

  Total Charge                                                            0.000
 !-----------------------------------------------------------------------------!

 ENERGY| Total FORCE_EVAL ( QS ) energy [a.u.]:            -2144.835490091021711

 -------------------------------------------------------------------------------
 -                                                                             -
 -                                DBCSR STATISTICS                             -
 -                                                                             -
 -------------------------------------------------------------------------------
 COUNTER                                    TOTAL       BLAS       SMM       ACC
 flops    24 x    24 x    66               152064       0.0%    100.0%      0.0%     
 flops    24 x    24 x    71               327168       0.0%    100.0%      0.0%     
 flops    24 x    24 x    79               364032       0.0%    100.0%      0.0%     
 flops    24 x    32 x    66               608256       0.0%    100.0%      0.0%     
 flops     9 x    24 x    24              1119744       0.0%    100.0%      0.0%     
 flops    24 x    32 x    71              1308672       0.0%    100.0%      0.0%     
 flops    24 x    32 x    79              1456128       0.0%    100.0%      0.0%     
 flops    13 x    24 x    24              1617408       0.0%    100.0%      0.0%     
 flops     9 x    32 x    24              4478976       0.0%    100.0%      0.0%     
 flops     9 x    24 x    32              4478976       0.0%    100.0%      0.0%     
 flops    13 x    32 x    24              6469632       0.0%    100.0%      0.0%     
 flops    13 x    24 x    32              6469632       0.0%    100.0%      0.0%     
 flops    32 x    24 x    24             18247680       0.0%    100.0%      0.0%     
 flops    32 x    24 x    66             24735744       0.0%    100.0%      0.0%     
 flops   150 x    24 x    66             29462400       0.0%    100.0%      0.0%     
 flops   154 x    24 x    66             30248064       0.0%    100.0%      0.0%     
 flops    56 x    24 x    24             31933440       0.0%    100.0%      0.0%     
 flops     9 x    32 x    32             41803776       0.0%    100.0%      0.0%     
 flops    56 x    24 x    66             42223104       0.0%    100.0%      0.0%     
 flops   150 x    24 x    24             51148800       0.0%    100.0%      0.0%     
 flops   154 x    24 x    24             52512768       0.0%    100.0%      0.0%     
 flops    32 x    24 x    71             53219328       0.0%    100.0%      0.0%     
 flops   145 x    24 x    66             56960640       0.0%    100.0%      0.0%     
 flops    32 x    24 x    79             59215872       0.0%    100.0%      0.0%     
 flops    13 x    32 x    32             60383232       0.0%    100.0%      0.0%     
 flops   150 x    24 x    71             63388800       0.0%    100.0%      0.0%     
 flops   154 x    24 x    71             65079168       0.0%    100.0%      0.0%     
 flops   150 x    24 x    79             70531200       0.0%    100.0%      0.0%     
 flops   154 x    24 x    79             72412032       0.0%    100.0%      0.0%     
 flops    64 x    24 x    24             72990720       0.0%    100.0%      0.0%     
 flops    56 x    24 x    71             90843648       0.0%    100.0%      0.0%     
 flops     9 x     9 x    24             92588832       0.0%    100.0%      0.0%     
 flops    64 x    24 x    66             96509952       0.0%    100.0%      0.0%     
 flops   145 x    24 x    24             98887680       0.0%    100.0%      0.0%     
 flops    56 x    24 x    79            101079552       0.0%    100.0%      0.0%     
 flops   145 x    24 x    71            122551680       0.0%    100.0%      0.0%     
 flops     9 x    13 x    24            124186608       0.0%    100.0%      0.0%     
 flops    13 x     9 x    24            133739424       0.0%    100.0%      0.0%     
 flops   145 x    24 x    79            136360320       0.0%    100.0%      0.0%     
 flops    32 x    24 x    32            145981440       0.0%    100.0%      0.0%     
 flops    32 x    32 x    24            145981440       0.0%    100.0%      0.0%     
 flops    12 x    12 x    24            156764160       0.0%    100.0%      0.0%     
 flops    12 x    13 x    24            157697280       0.0%    100.0%      0.0%     
 flops    13 x    12 x    24            169827840       0.0%    100.0%      0.0%     
 flops    32 x    32 x    66            198696960       0.0%    100.0%      0.0%     
 flops    64 x    24 x    71            207642624       0.0%    100.0%      0.0%     
 flops    64 x    24 x    79            231038976       0.0%    100.0%      0.0%     
 flops   150 x    32 x    66            235699200       0.0%    100.0%      0.0%     
 flops   154 x    32 x    66            241984512       0.0%    100.0%      0.0%     
 flops    56 x    24 x    32            255467520       0.0%    100.0%      0.0%     
 flops    56 x    32 x    24            255467520       0.0%    100.0%      0.0%     
 flops    56 x    32 x    66            337784832       0.0%    100.0%      0.0%     
 flops     9 x    24 x     9            368465760       0.0%    100.0%      0.0%     
 flops    13 x    13 x    24            377159328       0.0%    100.0%      0.0%     
 flops   150 x    24 x    32            409190400       0.0%    100.0%      0.0%     
 flops   150 x    32 x    24            409190400       0.0%    100.0%      0.0%     
 flops   154 x    24 x    32            420102144       0.0%    100.0%      0.0%     
 flops   154 x    32 x    24            420102144       0.0%    100.0%      0.0%     
 flops    32 x    32 x    71            427499520       0.0%    100.0%      0.0%     
 flops   145 x    32 x    66            455685120       0.0%    100.0%      0.0%     
 flops    32 x    32 x    79            475668480       0.0%    100.0%      0.0%     
 flops   150 x    32 x    71            507110400       0.0%    100.0%      0.0%     
 flops   154 x    32 x    71            520633344       0.0%    100.0%      0.0%     
 flops    13 x    24 x     9            532228320       0.0%    100.0%      0.0%     
 flops     9 x    24 x    13            532228320       0.0%    100.0%      0.0%     
 flops   150 x    32 x    79            564249600       0.0%    100.0%      0.0%     
 flops   154 x    32 x    79            579296256       0.0%    100.0%      0.0%     
 flops    64 x    32 x    24            583925760       0.0%    100.0%      0.0%     
 flops    64 x    24 x    32            583925760       0.0%    100.0%      0.0%     
 flops    56 x    32 x    71            726749184       0.0%    100.0%      0.0%     
 flops     9 x     9 x    32            740710656       0.0%    100.0%      0.0%     
 flops    13 x    24 x    13            768774240       0.0%    100.0%      0.0%     
 flops    64 x    32 x    66            772079616       0.0%    100.0%      0.0%     
 flops   145 x    32 x    24            791101440       0.0%    100.0%      0.0%     
 flops   145 x    24 x    32            791101440       0.0%    100.0%      0.0%     
 flops    56 x    32 x    79            808636416       0.0%    100.0%      0.0%     
 flops   145 x    32 x    71            980413440       0.0%    100.0%      0.0%     
 flops     9 x    13 x    32            993492864       0.0%    100.0%      0.0%     
 flops    13 x     9 x    32           1069915392       0.0%    100.0%      0.0%     
 flops   145 x    32 x    79           1090882560       0.0%    100.0%      0.0%     
 flops    32 x    32 x    32           1167851520       0.0%    100.0%      0.0%     
 flops    12 x    12 x    32           1254113280       0.0%    100.0%      0.0%     
 flops    12 x    13 x    32           1261578240       0.0%    100.0%      0.0%     
 flops    13 x    12 x    32           1358622720       0.0%    100.0%      0.0%     
 flops    64 x    32 x    71           1661140992       0.0%    100.0%      0.0%     
 flops    64 x    32 x    79           1848311808       0.0%    100.0%      0.0%     
 flops    56 x    32 x    32           2043740160       0.0%    100.0%      0.0%     
 flops     9 x    32 x     9           2947726080       0.0%    100.0%      0.0%     
 flops    13 x    13 x    32           3017274624       0.0%    100.0%      0.0%     
 flops   150 x    32 x    32           3273523200       0.0%    100.0%      0.0%     
 flops   154 x    32 x    32           3360817152       0.0%    100.0%      0.0%     
 flops     9 x    32 x    13           4257826560       0.0%    100.0%      0.0%     
 flops    13 x    32 x     9           4257826560       0.0%    100.0%      0.0%     
 flops    64 x    32 x    32           4671406080       0.0%    100.0%      0.0%     
 flops    13 x    32 x    13           6150193920       0.0%    100.0%      0.0%     
 flops   145 x    32 x    32           6328811520       0.0%    100.0%      0.0%     
 flops inhomo. stacks                  9518907456     100.0%      0.0%      0.0%
 flops total                        80.742320E+09      11.8%     88.2%      0.0%
 flops max/rank                      3.144282E+09      12.5%     87.5%      0.0%
 matmuls inhomo. stacks                     25368     100.0%      0.0%      0.0%
 matmuls total                            4160877       0.6%     99.4%      0.0%
 number of processed stacks                450192       5.6%     94.4%      0.0%
 average stack size                                     1.0       9.7       0.0
 marketing flops                    90.696729E+09
 -------------------------------------------------------------------------------
 # multiplications                           1352
 max memory usage/rank               2.526609E+09
 # max total images/rank                        2
 # max 3D layers                                1
 # MPI messages exchanged                  562432
 MPI messages size (bytes):
  total size                        12.531968E+09
  min size                           0.000000E+00
  max size                         102.256000E+03
  average size                      22.281748E+03
 MPI breakdown and total messages size (bytes):
             size <=      128               75883                        0
       128 < size <=     8192              140868               1079880192
      8192 < size <=    32768              197169               3616693248
     32768 < size <=   131072              148512               7835364096
    131072 < size <=  4194304                   0                        0
   4194304 < size <= 16777216                   0                        0
  16777216 < size                               0                        0
 -------------------------------------------------------------------------------

 *** WARNING in dbcsr_mm.F:301 :: Using a non-square number of MPI ranks ***
 *** might lead to poor performance. Used ranks: 32 Suggested: 36 64     ***

 -------------------------------------------------------------------------------
 -                                                                             -
 -                      DBCSR MESSAGE PASSING PERFORMANCE                      -
 -                                                                             -
 -------------------------------------------------------------------------------
 ROUTINE             CALLS      AVE VOLUME [Bytes]
 MP_Bcast               97                     12.
 MP_Allreduce         7746                      9.
 MP_Alltoall         10050                  27244.
 MP_ISend            42156                  11009.
 MP_IRecv            42160                  10232.
 -------------------------------------------------------------------------------

 -------------------------------------------------------------------------------
 -                                                                             -
 -                                DBM STATISTICS                               -
 -                                                                             -
 -------------------------------------------------------------------------------
    M  x    N  x    K                                          COUNT     PERCENT
   ??  x    ?  x    ?                                     1478832570      15.55%
    ?  x    ?  x   ??                                     1194400358      12.56%
   ??  x   ??  x   ??                                       30075624       0.32%
    ?  x    ?  x    ?                                       26957404       0.28%
    ?  x   ??  x   ??                                       15037812       0.16%
   ??  x   ??  x    ?                                       13938480       0.15%
    ?  x   ??  x    ?                                        6969240       0.07%
  ???  x    ?  x    ?                                     3437162664      36.14%
    ?  x    ?  x  ???                                     3308158834      34.78%
 -------------------------------------------------------------------------------

 -------------------------------------------------------------------------------
 -                                                                             -
 -                                GRID STATISTICS                              -
 -                                                                             -
 -------------------------------------------------------------------------------
 LP    KERNEL             BACKEND                              COUNT     PERCENT
 2     collocate general  CPU                                5683392      17.44%
 2     integrate general  CPU                                5624640      17.26%
 1     collocate general  CPU                                3852360      11.82%
 1     integrate general  CPU                                3852360      11.82%
 3     collocate general  CPU                                3844746      11.80%
 3     integrate general  CPU                                3787560      11.62%
 0     collocate general  CPU                                2098008       6.44%
 0     integrate general  CPU                                2097954       6.44%
 4     collocate general  CPU                                 882522       2.71%
 4     integrate general  CPU                                 868320       2.66%
 -------------------------------------------------------------------------------

 MEMORY| Estimated peak process memory [MiB]                                2410

 -------------------------------------------------------------------------------
 ----                             MULTIGRID INFO                            ----
 -------------------------------------------------------------------------------
 count for grid        1:         398347          cutoff [a.u.]          300.00
 count for grid        2:         157407          cutoff [a.u.]          100.00
 count for grid        3:         119686          cutoff [a.u.]           33.33
 count for grid        4:         109977          cutoff [a.u.]           11.11
 total gridlevel count  :         785417

 RI-HFX PERFORMANCE| DBT total number of flops:                         1.92E+14
 RI-HFX PERFORMANCE| DBT total execution time:                            710.89
 RI-HFX PERFORMANCE| DBT flop rate (Gflops / MPI rank):                     8.44

 -------------------------------------------------------------------------------
 -                                                                             -
 -                         MESSAGE PASSING PERFORMANCE                         -
 -                                                                             -
 -------------------------------------------------------------------------------

 ROUTINE             CALLS      AVE VOLUME [Bytes]
 MP_Group             6818
 MP_Bcast             7514                  91036.
 MP_Allreduce        52471                     58.
 MP_Sync             14332
 MP_Alltoall          5204                 992275.
 MP_SendRecv         15066                 232203.
 MP_ISendRecv        14911                 231187.
 MP_Wait             19219
 MP_comm_split        3530
 MP_ISend            79574                 371742.
 MP_IRecv            82540                 358897.
 -------------------------------------------------------------------------------


 -------------------------------------------------------------------------------
 -                                                                             -
 -                           R E F E R E N C E S                               -
 -                                                                             -
 -------------------------------------------------------------------------------
 
 CP2K version 2024.3, the CP2K developers group (2024).
 CP2K is freely available from https://www.cp2k.org/ .
 
 A. Bussy, O. Schuett, J. Hutter.
 J. Chem. Phys. 158, 164109 (2023).
 Sparse tensor based nuclear gradients for periodic Hartree-Fock and low-scaling 
 correlated wave function methods in the CP2K software package: A massively 
 parallel and GPU accelerated implementation..
 https://doi.org/10.1063/5.0144493

 T. D. Kuehne, M. Iannuzzi, M. Del Ben, V. V. Rybkin, P. Seewald, F. Stein, T. 
 Laino, R. Z. Khaliullin, O. Schuett, F. Schiffmann, D. Golze, J. Wilhelm, S. 
 Chulkov, M. H. Bani-Hashemian, V. Weber, U. Borstnik, M. Taillefumier, A. S. 
 Jakobovits, A. Lazzaro, H. Pabst, T. Mueller, R. Schade, M. Guidon, S. 
 Andermatt, N. Holmberg, G. K. Schenter, A. Hehn, A. Bussy, F. Belleflamme, G. 
 Tabacchi, A. Gloess, M. Lass, I. Bethune, C. J. Mundy, C. Plessl, M. Watkins, 
 J. VandeVondele, M. Krack, J. Hutter.
 J. Chem. Phys. 152, 194103 (2020).
 CP2K: An electronic structure and molecular dynamics software package - 
 Quickstep: Efficient and accurate electronic structure calculations.
 https://doi.org/10.1063/5.0007045

 G. L. Stoychev, A. A. Auer, F. Neese.
 J. Chem. Theory Comput. 13, 554-562 (2017).
 Automatic Generation of Auxiliary Basis Sets.
 https://doi.org/10.1021/acs.jctc.6b01041

 O. Schuett, P. Messmer, J. Hutter, J. VandeVondele.
 Electronic Structure Calculations on Graphics Processing Units, 173-190 (2016).
 GPU-Accelerated Sparse Matrix-Matrix Multiplication for Linear Scaling Density 
 Functional Theory.
 https://doi.org/10.1002/9781118670712.ch8

 A. Heinecke, G. Henry, M. Hutchinson, H. Pabst.
 Proceedings of Intl. Supercomputing Conference, 981-991 (2016).
 LIBXSMM: Accelerating Small Matrix Multiplications by Runtime Code Generation.
 https://doi.org/10.1109/SC.2016.83

 J. Hutter, M. Iannuzzi, F. Schiffmann, J. VandeVondele.
 WIREs Comput Mol Sci. 4, 15-25 (2014).
 CP2K: atomistic simulations of condensed matter systems.
 https://doi.org/10.1002/wcms.1159

 U. Borstnik, J. VandeVondele, V. Weber, J. Hutter.
 Parallel Comput. 40, 47-58 (2014).
 Sparse matrix multiplication: The distributed block-compressed sparse row 
 library.
 https://doi.org/10.1016/j.parco.2014.03.012

 P. Merlot, R. Izsak, A. Borgo, T. Kjaergaard, T. Helgaker, S. Reine.
 J. Chem. Phys. 141, 094104 (2014).
 Charge-constrained auxiliary-density-matrix methods for the Hartree-Fock 
 exchange contribution.
 https://doi.org/10.1063/1.4894267

 A. Marek, V. Blum, R. Johanni, V. Havu, B. Lang, T. Auckenthaler, A. Heinecke, 
 H. Bungartz, H. Lederer.
 J. Phys. Condens. Matter 26, 213201 (2014).
 The ELPA library: scalable parallel eigenvalue solutions for electronic 
 structure theory and computational science.
 https://doi.org/10.1088/0953-8984/26/21/213201

 M. Guidon, J. Hutter, J. VandeVondele.
 J. Chem. Theory Comput. 6, 2348-2364 (2010).
 Auxiliary Density Matrix Methods for Hartree-Fock Exchange Calculations.
 https://doi.org/10.1021/ct1002225

 M. Guidon, J. Hutter, J. VandeVondele.
 J. Chem. Theory Comput. 5, 3010-3021 (2009).
 Robust Periodic Hartree-Fock Exchange for Large-Scale Simulations Using 
 Gaussian Basis Sets.
 https://doi.org/10.1021/ct900494g

 M. Guidon, F. Schiffmann, J. Hutter, J. VandeVondele.
 J. Chem. Phys. 128, 214104 (2008).
 Ab initio molecular dynamics using hybrid density functionals.
 https://doi.org/10.1063/1.2931945

 J. VandeVondele, J. Hutter.
 J. Chem. Phys. 127, 114105 (2007).
 Gaussian basis sets for accurate calculations on molecular systems in gas and 
 condensed phases.
 https://doi.org/10.1063/1.2770708

 J. VandeVondele, M. Krack, F. Mohamed, M. Parrinello, T. Chassaing, J. Hutter.
 Comput. Phys. Commun. 167, 103-128 (2005).
 QUICKSTEP: Fast and accurate density functional calculations using a mixed 
 Gaussian and plane waves approach.
 https://doi.org/10.1016/j.cpc.2004.12.014

 M. Krack.
 Theor. Chem. Acc. 114, 145-152 (2005).
 Pseudopotentials for H to Kr optimized for gradient-corrected 
 exchange-correlation functionals.
 https://doi.org/10.1007/s00214-005-0655-y

 M. Frigo, S. G. Johnson.
 Proc. IEEE 93, 216-231 (2005).
 The design and implementation of FFTW3.
 https://doi.org/10.1109/JPROC.2004.840301

 J. Heyd, G. E. Scuseria.
 J. Chem. Phys. 120, 7274-7280 (2004).
 Assessment and validation of a screened Coulomb hybrid density functional.
 https://doi.org/10.1063/1.1668634

 J. VandeVondele, J. Hutter.
 J. Chem. Phys. 118, 4365-4369 (2003).
 An efficient orbital transformation method for electronic structure 
 calculations.
 https://doi.org/10.1063/1.1543154

 C. Hartwigsen, S. Goedecker, J. Hutter.
 Phys. Rev. B 58, 3641-3662 (1998).
 Relativistic separable dual-space Gaussian pseudopotentials from H to Rn.
 https://doi.org/10.1103/PhysRevB.58.3641

 G. Lippert, J. Hutter, M. Parrinello.
 Mol. Phys. 92, 477-487 (1997).
 A hybrid Gaussian and plane wave density functional scheme.
 https://doi.org/10.1080/002689797170220

 S. Goedecker, M. Teter, J. Hutter.
 Phys. Rev. B 54, 1703-1710 (1996).
 Separable dual-space Gaussian pseudopotentials.
 https://doi.org/10.1103/PhysRevB.54.1703

 J. P. Perdew, K. Burke, M. Ernzerhof.
 Phys. Rev. Lett. 77, 3865-3868 (1996).
 Generalized gradient approximation made simple.
 https://doi.org/10.1103/PhysRevLett.77.3865


 -------------------------------------------------------------------------------
 -                                                                             -
 -                                T I M I N G                                  -
 -                                                                             -
 -------------------------------------------------------------------------------
 SUBROUTINE                       CALLS  ASD         SELF TIME        TOTAL TIME
                                MAXIMUM       AVERAGE  MAXIMUM  AVERAGE  MAXIMUM
 CP2K                                 1  1.0    0.050    0.068 1136.596 1136.598
 qs_energies                          1  2.0    0.002    0.002 1135.776 1135.777
 scf_env_do_scf                       1  3.0    0.000    0.001 1134.743 1134.743
 qs_ks_update_qs_env                 62  5.0    0.000    0.000 1093.737 1093.737
 rebuild_ks_matrix                   60  6.0    0.000    0.000 1093.733 1093.734
 qs_ks_build_kohn_sham_matrix        60  7.0    0.010    0.010 1093.733 1093.734
 hfx_ks_matrix                       60  8.0    0.002    0.002 1004.338 1004.339
 hfx_ri_update_ks                    60  9.0    0.001    0.002 1004.331 1004.331
 hfx_ri_update_ks_Pmat               60 10.0   28.914   31.521 1004.192 1004.292
 scf_env_do_scf_inner_loop           60  4.0    0.002    0.009  812.810  812.810
 dbt_total                         4172 11.5    0.032    0.034  683.604  683.615
 dbt_contract                      1089 13.0    0.090    0.097  609.627  610.180
 dbt_tas_total                     1815 14.1   14.211   14.824  510.426  510.427
 dbt_tas_multiply                  1092 14.0    0.002    0.003  504.633  504.634
 dbt_tas_dbm                       1092 16.0    0.003    0.004  428.105  428.114
 dbm_multiply                      1092 18.0  368.855  425.023  368.855  425.023
 hfx_ri_update_ks_Pmat_Px3C         540 11.0    0.002    0.002  395.221  395.226
 init_scf_loop                        2  4.0    0.002    0.002  321.932  321.932
 hfx_ri_pre_scf_Pmat                  1 11.0    0.000    0.001  292.565  292.565
 dbt_tas_mm_3T                      541 17.0    0.001    0.002  248.914  286.365
 hfx_ri_pre_scf_Pmat_int              1 12.0    0.000    0.000  279.785  279.786
 hfx_ri_pre_scf_calc_tensors          1 13.0    0.006    0.010  278.952  279.056
 build_3c_integrals                   3 14.0  133.047  165.143  206.459  257.785
 hfx_ri_update_ks_Pmat_KS           540 11.0    0.004    0.004  210.394  210.394
 mp_sync                          14332 13.4  144.660  195.063  144.660  195.063
 dbt_tas_mm_2                       541 17.0    0.002    0.003  133.474  133.477
 dbt_crop                          2178 14.0   38.799   42.431   81.138   90.504
 dbt_tas_reserve_blocks_index      6434 15.8   20.469   30.107   68.539   80.275
 dbt_reserve_blocks_index          4576 14.9    0.379    0.550   60.878   70.098
 dbt_copy                          1884 12.3    0.026    0.029   62.719   68.097
 calculate_rho_elec                 121  7.5    0.022    0.025   66.729   66.729
 dbt_reserve_blocks_index_array    4451 13.9    0.019    0.047   56.400   65.997
 grid_collocate_task_list           121  8.5   52.037   63.818   52.037   63.818
 abc_contract_xsmm              ******* 15.0   48.660   60.960   48.660   60.960
 sum_up_and_integrate                60  8.0    0.002    0.002   49.698   53.903
 integrate_v_rspace                 120  9.0    0.004    0.005   49.677   53.883
 dbm_reserve_blocks                7162 16.7   48.445   51.079   48.445   51.079
 grid_integrate_task_list           120 10.0   40.757   50.948   40.757   50.948
 dbt_reshape                        760 13.8   27.902   32.847   45.938   48.829
 convert_to_new_pgrid              3276 16.0    0.022    0.026   43.860   46.112
 dbm_copy                          2180 17.0   43.679   45.932   43.679   45.932
 hfx_ri_update_ks_Pmat_copy_2       540 11.0    0.001    0.002   42.892   42.900
 qs_rho_update_rho_low               61  5.0    0.000    0.000   40.783   40.784
 density_rs2pw                      121  8.5    0.003    0.004   14.573   28.449
 transfer_rs2pw                     486  9.5    0.002    0.002   13.676   27.600
 transfer_rs2pw_300                 123 10.4    0.857    0.933   13.275   27.233
 mp_sendrecv_dv                   15066 11.5   12.657   26.499   12.657   26.499
 admm_mo_calc_rho_aux                60  8.0    0.000    0.001   26.250   26.265
 build_3c_integrals_put_dbcsr   2444942 15.0   18.782   24.099   18.782   24.099
 -------------------------------------------------------------------------------

 The number of warnings for this run is : 2
 
 -------------------------------------------------------------------------------
  **** **** ******  **  PROGRAM ENDED AT                 2026-06-28 02:07:50.756
 ***** ** ***  *** **   PROGRAM RAN ON                                      cu07
 **    ****   ******    PROGRAM RAN BY                                     rudin
 ***** **    ** ** **   PROGRAM PROCESS ID                               1323542
  **** **  *******  **  PROGRAM STOPPED IN /home/rudin/code/kylin-pbc/art/exampl
                                           e/extern/MgO-HSE06-sc333-cp2k-ADMM
