    2    2    1    1
  0.5905204E+01  0.2556191E-09  0.2556191E-09  0.2556191E-09  0.5000000E-15
  1.000000000000000E-004
  CAR 
 BN-HSE06-k333-vasp  (HSE06)             
      8      4      8
 
  0.0000000E+00  0.0000000E+00  0.0000000E+00  0.3703704E-01
    1      -15.493107   1.000000
    2        6.552693   1.000000
    3        6.552694   1.000000
    4        6.552701   1.000000
    5       17.185282   0.000000
    6       17.185282   0.000000
    7       17.185283   0.000000
    8       18.840305   0.000000
 
  0.3333333E+00  0.0000000E+00  0.0000000E+00  0.2962963E+00
    1      -12.758053   1.000000
    2       -1.959635   1.000000
    3        4.874322   1.000000
    4        4.874328   1.000000
    5       18.277263   0.000000
    6       19.111465   0.000000
    7       19.111467   0.000000
    8       23.310504   0.000000
 
  0.3333333E+00  0.3333333E+00  0.0000000E+00  0.2222222E+00
    1      -11.867037   1.000000
    2       -0.040600   1.000000
    3        2.202289   1.000000
    4        2.202292   1.000000
    5       13.772398   0.000000
    6       18.519849   0.000000
    7       24.461620   0.000000
    8       24.461624   0.000000
 
 -0.3333333E+00  0.3333333E+00  0.0000000E+00  0.4444444E+00
    1       -9.727208   1.000000
    2       -2.525719   1.000000
    3       -1.425578   1.000000
    4        2.791311   1.000000
    5       16.000114   0.000000
    6       23.119969   0.000000
    7       23.409070   0.000000
    8       24.979447   0.000000
