       N       E                     dE             d eps       ncg     rms          ort
SDA:   1    -0.200244527800E+02   -0.20024E+02   -0.22349E-01    32   0.559E-01 0.000E+00
DMP:   2    -0.200412691049E+02   -0.16816E-01   -0.10940E-01    32   0.166E-01 0.282E-01
DMP:   3    -0.200480602483E+02   -0.67911E-02   -0.26045E-02    32   0.397E-02 0.666E-02
DMP:   4    -0.200496753123E+02   -0.16151E-02   -0.12156E-02    32   0.242E-02 0.161E-02
DMP:   5    -0.200505581655E+02   -0.88285E-03   -0.59842E-03    32   0.963E-03 0.140E-02
DMP:   6    -0.200509763017E+02   -0.41814E-03   -0.20695E-03    32   0.288E-03 0.601E-03
DMP:   7    -0.200511161575E+02   -0.13986E-03   -0.75079E-04    32   0.118E-03 0.183E-03
DMP:   8    -0.200511685838E+02   -0.52426E-04   -0.33183E-04    32   0.544E-04 0.747E-04
DMP:   9    -0.200511921822E+02   -0.23598E-04   -0.13915E-04    32   0.216E-04 0.346E-04
DMP:  10    -0.200512020625E+02   -0.98803E-05   -0.53392E-05    32   0.808E-05 0.138E-04
DMP:  11    -0.200512059252E+02   -0.38627E-05   -0.20959E-05    32   0.320E-05 0.534E-05
DMP:  12    -0.200512074974E+02   -0.15722E-05   -0.91270E-06    32   0.136E-05 0.240E-05
DMP:  13    -0.200512081939E+02   -0.69641E-06   -0.40074E-06    32   0.561E-06 0.115E-05
   1 F= -.20051208E+02 E0= -.20051208E+02  d E =-.230366E-16
