<?xml version="1.0" encoding="ISO-8859-1"?>
<modeling>
 <generator>
  <i name="program" type="string">vasp </i>
  <i name="version" type="string">5.4.4.18Apr17-6-g9f103f2a35  </i>
  <i name="subversion" type="string">(build Mar 10 2026 18:13:51) complex            parallel </i>
  <i name="platform" type="string">LinuxIFC </i>
  <i name="date" type="string">2026 06 25 </i>
  <i name="time" type="string">14:53:01 </i>
 </generator>
 <incar>
  <i type="string" name="SYSTEM"> BN-HSE06-k333-vasp  (HSE06)</i>
  <i type="int" name="ISTART">     1</i>
  <i type="string" name="PREC">accurate</i>
  <i type="string" name="ALGO"> Damped</i>
  <i type="int" name="ICHARG">     0</i>
  <i type="int" name="NELM">   120</i>
  <i name="EDIFF">      0.00000100</i>
  <i name="ENCUT">    520.00000000</i>
  <i type="logical" name="LREAL"> F  </i>
  <i name="TIME">      0.40000000</i>
  <i type="int" name="ISMEAR">     0</i>
  <i name="SIGMA">      0.05000000</i>
  <i type="logical" name="LWAVE"> F  </i>
  <i type="logical" name="LCHARG"> F  </i>
  <v type="int" name="KPOINT_BSE">    -1     0     0     0</v>
  <i type="int" name="NELM">   120</i>
  <i type="logical" name="LHFCALC"> T  </i>
  <i name="HFSCREEN">      0.20000000</i>
  <i name="AEXX">      0.25000000</i>
  <i type="string" name="PRECFOCK">fast</i>
 </incar>
 <structure name="primitive_cell" >
  <crystal>
   <varray name="basis" >
    <v>       0.00000000       1.80750000       1.80750000 </v>
    <v>       1.80750000       0.00000000       1.80750000 </v>
    <v>       1.80750000       1.80750000       0.00000000 </v>
   </varray>
   <i name="volume">     11.81040834 </i>
   <varray name="rec_basis" >
    <v>      -0.27662517       0.27662517       0.27662517 </v>
    <v>       0.27662517      -0.27662517       0.27662517 </v>
    <v>       0.27662517       0.27662517      -0.27662517 </v>
   </varray>
  </crystal>
  <varray name="positions" >
   <v>       0.00000000       0.00000000       0.00000000 </v>
   <v>       0.25000000       0.25000000       0.25000000 </v>
  </varray>
 </structure>
 <varray name="primitive_index" >
  <v type="int" >        1 </v>
  <v type="int" >        2 </v>
 </varray>
 <kpoints>
  <generation param="Gamma">
   <v type="int" name="divisions">       3        3        3 </v>
   <v name="usershift">      0.00000000       0.00000000       0.00000000 </v>
   <v name="genvec1">      0.33333333       0.00000000       0.00000000 </v>
   <v name="genvec2">      0.00000000       0.33333333       0.00000000 </v>
   <v name="genvec3">      0.00000000       0.00000000       0.33333333 </v>
   <v name="shift">      0.00000000       0.00000000       0.00000000 </v>
  </generation>
  <varray name="kpointlist" >
   <v>       0.00000000       0.00000000       0.00000000 </v>
   <v>       0.33333333       0.00000000       0.00000000 </v>
   <v>       0.33333333       0.33333333       0.00000000 </v>
   <v>      -0.33333333       0.33333333       0.00000000 </v>
  </varray>
  <varray name="weights" >
   <v>       0.03703704 </v>
   <v>       0.29629630 </v>
   <v>       0.22222222 </v>
   <v>       0.44444444 </v>
  </varray>
 </kpoints>
 <parameters>
  <separator name="general" >
   <i type="string" name="SYSTEM">BN-HSE06-k333-vasp  (HSE06)</i>
   <i type="logical" name="LCOMPAT"> F  </i>
  </separator>
  <separator name="electronic" >
   <i type="string" name="PREC">accura</i>
   <i name="ENMAX">    520.00000000</i>
   <i name="ENAUG">    627.11200000</i>
   <i name="EDIFF">      0.00000100</i>
   <i type="int" name="IALGO">    53</i>
   <i type="int" name="IWAVPR">    10</i>
   <i type="int" name="NBANDS">     8</i>
   <i name="NELECT">      8.00000000</i>
   <i type="int" name="TURBO">     0</i>
   <i type="int" name="IRESTART">     0</i>
   <i type="int" name="NREBOOT">     0</i>
   <i type="int" name="NMIN">     0</i>
   <i name="EREF">      0.00000000</i>
   <separator name="electronic smearing" >
    <i type="int" name="ISMEAR">     0</i>
    <i name="SIGMA">      0.05000000</i>
    <i name="KSPACING">      0.50000000</i>
    <i type="logical" name="KGAMMA"> T  </i>
   </separator>
   <separator name="electronic projectors" >
    <i type="logical" name="LREAL"> F  </i>
    <v name="ROPT">      0.00000000      0.00000000</v>
    <i type="int" name="LMAXPAW">  -100</i>
    <i type="int" name="LMAXMIX">     2</i>
    <i type="logical" name="NLSPLINE"> F  </i>
   </separator>
   <separator name="electronic startup" >
    <i type="int" name="ISTART">     1</i>
    <i type="int" name="ICHARG">     0</i>
    <i type="int" name="INIWAV">     1</i>
   </separator>
   <separator name="electronic spin" >
    <i type="int" name="ISPIN">     1</i>
    <i type="logical" name="LNONCOLLINEAR"> F  </i>
    <v name="MAGMOM">      1.00000000      1.00000000</v>
    <i name="NUPDOWN">     -1.00000000</i>
    <i type="logical" name="LSORBIT"> F  </i>
    <v name="SAXIS">      0.00000000      0.00000000      1.00000000</v>
    <i type="logical" name="LSPIRAL"> F  </i>
    <v name="QSPIRAL">      0.00000000      0.00000000      0.00000000</v>
    <i type="logical" name="LZEROZ"> F  </i>
   </separator>
   <separator name="electronic exchange-correlation" >
    <i type="logical" name="LASPH"> F  </i>
    <i type="logical" name="LMETAGGA"> F  </i>
   </separator>
   <separator name="electronic convergence" >
    <i type="int" name="NELM">   120</i>
    <i type="int" name="NELMDL">     0</i>
    <i type="int" name="NELMIN">     2</i>
    <i name="ENINI">    520.00000000</i>
    <separator name="electronic convergence detail" >
     <i type="logical" name="LDIAG"> T  </i>
     <i type="logical" name="LSUBROT"> F  </i>
     <i name="WEIMIN">      0.00000000</i>
     <i name="EBREAK">      0.00000003</i>
     <i name="DEPER">      0.30000000</i>
     <i type="int" name="NRMM">     4</i>
     <i name="TIME">      0.40000000</i>
    </separator>
   </separator>
   <separator name="electronic mixer" >
    <i name="AMIX">      0.40000000</i>
    <i name="BMIX">      1.00000000</i>
    <i name="AMIN">      0.10000000</i>
    <i name="AMIX_MAG">      1.60000000</i>
    <i name="BMIX_MAG">      1.00000000</i>
    <separator name="electronic mixer details" >
     <i type="int" name="IMIX">     4</i>
     <i type="logical" name="MIXFIRST"> F  </i>
     <i type="int" name="MAXMIX">   -45</i>
     <i name="WC">    100.00000000</i>
     <i type="int" name="INIMIX">     1</i>
     <i type="int" name="MIXPRE">     1</i>
     <i type="int" name="MREMOVE">     5</i>
    </separator>
   </separator>
   <separator name="electronic dipolcorrection" >
    <i type="logical" name="LDIPOL"> F  </i>
    <i type="logical" name="LMONO"> F  </i>
    <i type="int" name="IDIPOL">     0</i>
    <i name="EPSILON">      1.00000000</i>
    <v name="DIPOL">   -100.00000000   -100.00000000   -100.00000000</v>
    <i name="EFIELD">      0.00000000</i>
   </separator>
  </separator>
  <separator name="grids" >
   <i type="int" name="NGX">    20</i>
   <i type="int" name="NGY">    20</i>
   <i type="int" name="NGZ">    20</i>
   <i type="int" name="NGXF">    40</i>
   <i type="int" name="NGYF">    40</i>
   <i type="int" name="NGZF">    40</i>
   <i type="logical" name="ADDGRID"> F  </i>
  </separator>
  <separator name="ionic" >
   <i type="int" name="NSW">     0</i>
   <i type="int" name="IBRION">    -1</i>
   <i type="int" name="MDALGO">     0</i>
   <i type="int" name="ISIF">     0</i>
   <i name="PSTRESS">      0.00000000</i>
   <i name="EDIFFG">      0.00001000</i>
   <i type="int" name="NFREE">     0</i>
   <i name="POTIM">      0.50000000</i>
   <i name="SMASS">     -3.00000000</i>
   <i name="SCALEE">      1.00000000</i>
  </separator>
  <separator name="ionic md" >
   <i name="TEBEG">      0.00010000</i>
   <i name="TEEND">      0.00010000</i>
   <i type="int" name="NBLOCK">     1</i>
   <i type="int" name="KBLOCK">     1</i>
   <i type="int" name="NPACO">   256</i>
   <i name="APACO">     16.00000000</i>
  </separator>
  <separator name="symmetry" >
   <i type="int" name="ISYM">     3</i>
   <i name="SYMPREC">      0.00001000</i>
  </separator>
  <separator name="dos" >
   <i type="int" name="LORBIT">     0</i>
   <v name="RWIGS">     -1.00000000     -1.00000000</v>
   <i type="int" name="NEDOS">   301</i>
   <i name="EMIN">     10.00000000</i>
   <i name="EMAX">    -10.00000000</i>
   <i name="EFERMI">      0.00000000</i>
  </separator>
  <separator name="writing" >
   <i type="int" name="NWRITE">     2</i>
   <i type="logical" name="LWAVE"> F  </i>
   <i type="logical" name="LDOWNSAMPLE"> F  </i>
   <i type="logical" name="LCHARG"> F  </i>
   <i type="logical" name="LPARD"> F  </i>
   <i type="logical" name="LVTOT"> F  </i>
   <i type="logical" name="LVHAR"> F  </i>
   <i type="logical" name="LELF"> F  </i>
   <i type="logical" name="LOPTICS"> F  </i>
   <v name="STM">      0.00000000      0.00000000      0.00000000      0.00000000      0.00000000      0.00000000      0.00000000</v>
  </separator>
  <separator name="performance" >
   <i type="int" name="NPAR">     8</i>
   <i type="int" name="NSIM">     4</i>
   <i type="int" name="NBLK">    -1</i>
   <i type="logical" name="LPLANE"> T  </i>
   <i type="logical" name="LSCALAPACK"> T  </i>
   <i type="logical" name="LSCAAWARE"> F  </i>
   <i type="logical" name="LSCALU"> F  </i>
   <i type="logical" name="LASYNC"> F  </i>
   <i type="logical" name="LORBITALREAL"> F  </i>
  </separator>
  <separator name="miscellaneous" >
   <i type="int" name="IDIOT">     3</i>
   <i type="int" name="ISPECIAL">     0</i>
   <i type="logical" name="LMUSIC"> F  </i>
   <v name="POMASS">     10.81100000     14.00100000</v>
   <v name="DARWINR">      0.00000000      0.00000000</v>
   <v name="DARWINV">      1.00000000      1.00000000</v>
   <i type="logical" name="LCORR"> T  </i>
  </separator>
  <i type="logical" name="GGA_COMPAT"> T  </i>
  <i type="logical" name="LBERRY"> F  </i>
  <i type="int" name="ICORELEVEL">     0</i>
  <i type="logical" name="LDAU"> F  </i>
  <i type="int" name="I_CONSTRAINED_M">     0</i>
  <separator name="electronic exchange-correlation" >
   <i type="string" name="GGA">--</i>
   <i type="int" name="VOSKOWN">     0</i>
   <i type="logical" name="LHFCALC"> T  </i>
   <i type="string" name="PRECFOCK">fast</i>
   <i type="logical" name="LSYMGRAD"> F  </i>
   <i type="logical" name="LHFONE"> F  </i>
   <i type="logical" name="LRHFCALC"> F  </i>
   <i type="logical" name="LTHOMAS"> F  </i>
   <i type="logical" name="LMODELHF"> F  </i>
   <i name="ENCUT4O">     -1.00000000</i>
   <i type="int" name="EXXOEP">     0</i>
   <i type="int" name="FOURORBIT">     0</i>
   <i name="AEXX">      0.25000000</i>
   <i name="HFALPHA">     -1.00000000</i>
   <i name="MCALPHA">      0.00000000</i>
   <i name="ALDAX">      0.75000000</i>
   <i name="AGGAX">      0.75000000</i>
   <i name="ALDAC">      1.00000000</i>
   <i name="AGGAC">      1.00000000</i>
   <i type="int" name="NKREDX">     1</i>
   <i type="int" name="NKREDY">     1</i>
   <i type="int" name="NKREDZ">     1</i>
   <i type="logical" name="SHIFTRED"> F  </i>
   <i type="logical" name="ODDONLY"> F  </i>
   <i type="logical" name="EVENONLY"> F  </i>
   <i type="int" name="LMAXFOCK">     4</i>
   <i type="int" name="NMAXFOCKAE">     1</i>
   <i type="logical" name="LFOCKAEDFT"> F  </i>
   <i name="HFSCREEN">      0.20000000</i>
   <i name="HFSCREENC">      0.20000000</i>
   <i type="int" name="NBANDSGWLOW">     1</i>
  </separator>
  <separator name="vdW DFT" >
   <i type="logical" name="LUSE_VDW"> F  </i>
   <i name="Zab_VDW">     -0.84910000</i>
   <i name="PARAM1">      0.12340000</i>
   <i name="PARAM2">      1.00000000</i>
   <i name="PARAM3">      0.00000000</i>
  </separator>
  <separator name="model GW" >
   <i type="int" name="MODEL_GW">     0</i>
   <i name="MODEL_EPS0">      3.54312250</i>
   <i name="MODEL_ALPHA">      1.00000000</i>
  </separator>
  <separator name="linear response parameters" >
   <i type="logical" name="LEPSILON"> F  </i>
   <i type="logical" name="LRPA"> F  </i>
   <i type="logical" name="LNABLA"> F  </i>
   <i type="logical" name="LVEL"> F  </i>
   <i type="int" name="KINTER">     0</i>
   <i name="CSHIFT">      0.10000000</i>
   <i name="OMEGAMAX">     -1.00000000</i>
   <i name="DEG_THRESHOLD">      0.00200000</i>
   <i name="RTIME">     -0.10000000</i>
   <i name="WPLASMAI">      0.00000000</i>
   <v name="DFIELD">      0.00000000      0.00000000      0.00000000</v>
   <v name="WPLASMA">      0.00000000      0.00000000      0.00000000      0.00000000      0.00000000      0.00000000      0.00000000      0.00000000      0.00000000</v>
  </separator>
  <separator name="orbital magnetization" >
   <i type="logical" name="NUCIND"> F  </i>
   <v name="MAGPOS">      0.00000000      0.00000000      0.00000000</v>
   <i type="logical" name="LNICSALL"> T  </i>
   <i type="logical" name="ORBITALMAG"> F  </i>
   <i type="logical" name="LMAGBLOCH"> F  </i>
   <i type="logical" name="LCHIMAG"> F  </i>
   <i type="logical" name="LGAUGE"> T  </i>
   <i type="int" name="MAGATOM">     0</i>
   <v name="MAGDIPOL">      0.00000000      0.00000000      0.00000000</v>
   <v name="AVECCONST">      0.00000000      0.00000000      0.00000000</v>
  </separator>
  <separator name="response functions" >
   <i type="logical" name="LADDER"> F  </i>
   <i type="logical" name="LRPAFORCE"> F  </i>
   <i type="logical" name="LFXC"> F  </i>
   <i type="logical" name="LHARTREE"> T  </i>
   <i type="int" name="IBSE">     0</i>
   <v type="int" name="KPOINT">    -1     0     0     0</v>
   <i type="logical" name="LTCTE"> F  </i>
   <i type="logical" name="LTETE"> F  </i>
   <i type="logical" name="LTRIPLET"> F  </i>
   <i type="logical" name="LFXCEPS"> F  </i>
   <i type="logical" name="LFXHEG"> F  </i>
   <i type="int" name="NATURALO">     2</i>
   <i type="logical" name="L2ORDER"> F  </i>
   <i type="logical" name="LMP2LT"> F  </i>
   <i type="logical" name="LUSEW"> F  </i>
   <i name="ENCUTGW">     -2.00000000</i>
   <i name="ENCUTGWSOFT">     -2.00000000</i>
   <i name="ENCUTLF">     -1.00000000</i>
   <i type="int" name="LMAXMP2">    -1</i>
   <i name="SCISSOR">      0.00000000</i>
   <i type="int" name="NOMEGA">     0</i>
   <i type="int" name="NOMEGAR">     0</i>
   <i type="int" name="NBANDSGW">    -1</i>
   <i type="int" name="NBANDSO">    -1</i>
   <i type="int" name="NBANDSV">    -1</i>
   <i type="int" name="NELM">   120</i>
   <i type="int" name="NELMHF">     1</i>
   <i type="int" name="DIM">     3</i>
   <i type="int" name="ANTIRES">     0</i>
   <i name="OMEGAMAX">    -30.00000000</i>
   <i name="OMEGAMIN">    -30.00000000</i>
   <i name="OMEGATL">   -200.00000000</i>
   <i type="int" name="OMEGAGRID">   140</i>
   <i name="CSHIFT">     -0.10000000</i>
   <i type="logical" name="SELFENERGY"> F  </i>
   <i type="logical" name="LSPECTRAL"> F  </i>
   <i type="logical" name="LSPECTRALGW"> F  </i>
   <i type="logical" name="LSINGLES"> F  </i>
   <i type="logical" name="LFERMIGW"> F  </i>
   <i type="logical" name="ODDONLYGW"> F  </i>
   <i type="logical" name="EVENONLYGW"> F  </i>
   <i type="int" name="NKREDLFX">     1</i>
   <i type="int" name="NKREDLFY">     1</i>
   <i type="int" name="NKREDLFZ">     1</i>
   <i type="int" name="MAXMEM">  2800</i>
   <i type="int" name="TELESCOPE">     0</i>
   <i type="int" name="TAUPAR">     1</i>
   <i type="int" name="OMEGAPAR">    -1</i>
   <i name="LAMBDA">      1.00000000</i>
  </separator>
  <separator name="External order field" >
   <i name="OFIELD_KAPPA">      0.00000000</i>
   <v name="OFIELD_K">      0.00000000      0.00000000      0.00000000</v>
   <i name="OFIELD_Q6_NEAR">      0.00000000</i>
   <i name="OFIELD_Q6_FAR">      0.00000000</i>
   <i name="OFIELD_A">      0.00000000</i>
  </separator>
 </parameters>
 <atominfo>
  <atoms>       2 </atoms>
  <types>       2 </types>
  <array name="atoms" >
   <dimension dim="1">ion</dimension>
   <field type="string">element</field>
   <field type="int">atomtype</field>
   <set>
    <rc><c>B </c><c>   1</c></rc>
    <rc><c>N </c><c>   2</c></rc>
   </set>
  </array>
  <array name="atomtypes" >
   <dimension dim="1">type</dimension>
   <field type="int">atomspertype</field>
   <field type="string">element</field>
   <field>mass</field>
   <field>valence</field>
   <field type="string">pseudopotential</field>
   <set>
    <rc><c>   1</c><c>B </c><c>     10.81100000</c><c>      3.00000000</c><c>  PAW_PBE B 06Sep2000                   </c></rc>
    <rc><c>   1</c><c>N </c><c>     14.00100000</c><c>      5.00000000</c><c>  PAW_PBE N 08Apr2002                   </c></rc>
   </set>
  </array>
 </atominfo>
 <structure name="initialpos" >
  <crystal>
   <varray name="basis" >
    <v>       0.00000000       1.80750000       1.80750000 </v>
    <v>       1.80750000       0.00000000       1.80750000 </v>
    <v>       1.80750000       1.80750000       0.00000000 </v>
   </varray>
   <i name="volume">     11.81040834 </i>
   <varray name="rec_basis" >
    <v>      -0.27662517       0.27662517       0.27662517 </v>
    <v>       0.27662517      -0.27662517       0.27662517 </v>
    <v>       0.27662517       0.27662517      -0.27662517 </v>
   </varray>
  </crystal>
  <varray name="positions" >
   <v>       0.00000000       0.00000000       0.00000000 </v>
   <v>       0.25000000       0.25000000       0.25000000 </v>
  </varray>
 </structure>
 <calculation>
  <scstep>
   <time name="total">    0.07    0.07</time>
   <energy>
    <i name="alphaZ">     30.12996246 </i>
    <i name="ewald">   -358.38817986 </i>
    <i name="hartreedc">    -50.13172605 </i>
    <i name="XCdc">     22.27376310 </i>
    <i name="pawpsdc">    890.78706767 </i>
    <i name="pawaedc">   -891.11102062 </i>
    <i name="eentropy">     -0.00000000 </i>
    <i name="bandstr">    -15.49937898 </i>
    <i name="atom">    332.23264155 </i>
    <i name="e_fr_energy">    -20.02445278 </i>
    <i name="e_wo_entrp">    -20.02445278 </i>
    <i name="e_0_energy">    -20.02445278 </i>
   </energy>
  </scstep>
  <scstep>
   <time name="total">    0.06    0.06</time>
   <energy>
    <i name="e_fr_energy">    -20.04126910 </i>
    <i name="e_wo_entrp">    -20.04126910 </i>
    <i name="e_0_energy">    -20.04126910 </i>
   </energy>
  </scstep>
  <scstep>
   <time name="total">    0.05    0.05</time>
   <energy>
    <i name="e_fr_energy">    -20.04806025 </i>
    <i name="e_wo_entrp">    -20.04806025 </i>
    <i name="e_0_energy">    -20.04806025 </i>
   </energy>
  </scstep>
  <scstep>
   <time name="total">    0.05    0.05</time>
   <energy>
    <i name="e_fr_energy">    -20.04967531 </i>
    <i name="e_wo_entrp">    -20.04967531 </i>
    <i name="e_0_energy">    -20.04967531 </i>
   </energy>
  </scstep>
  <scstep>
   <time name="total">    0.05    0.05</time>
   <energy>
    <i name="e_fr_energy">    -20.05055817 </i>
    <i name="e_wo_entrp">    -20.05055817 </i>
    <i name="e_0_energy">    -20.05055817 </i>
   </energy>
  </scstep>
  <scstep>
   <time name="total">    0.06    0.06</time>
   <energy>
    <i name="e_fr_energy">    -20.05097630 </i>
    <i name="e_wo_entrp">    -20.05097630 </i>
    <i name="e_0_energy">    -20.05097630 </i>
   </energy>
  </scstep>
  <scstep>
   <time name="total">    0.05    0.05</time>
   <energy>
    <i name="e_fr_energy">    -20.05111616 </i>
    <i name="e_wo_entrp">    -20.05111616 </i>
    <i name="e_0_energy">    -20.05111616 </i>
   </energy>
  </scstep>
  <scstep>
   <time name="total">    0.06    0.06</time>
   <energy>
    <i name="e_fr_energy">    -20.05116858 </i>
    <i name="e_wo_entrp">    -20.05116858 </i>
    <i name="e_0_energy">    -20.05116858 </i>
   </energy>
  </scstep>
  <scstep>
   <time name="total">    0.05    0.05</time>
   <energy>
    <i name="e_fr_energy">    -20.05119218 </i>
    <i name="e_wo_entrp">    -20.05119218 </i>
    <i name="e_0_energy">    -20.05119218 </i>
   </energy>
  </scstep>
  <scstep>
   <time name="total">    0.05    0.05</time>
   <energy>
    <i name="e_fr_energy">    -20.05120206 </i>
    <i name="e_wo_entrp">    -20.05120206 </i>
    <i name="e_0_energy">    -20.05120206 </i>
   </energy>
  </scstep>
  <scstep>
   <time name="total">    0.05    0.05</time>
   <energy>
    <i name="e_fr_energy">    -20.05120593 </i>
    <i name="e_wo_entrp">    -20.05120593 </i>
    <i name="e_0_energy">    -20.05120593 </i>
   </energy>
  </scstep>
  <scstep>
   <time name="total">    0.05    0.05</time>
   <energy>
    <i name="e_fr_energy">    -20.05120750 </i>
    <i name="e_wo_entrp">    -20.05120750 </i>
    <i name="e_0_energy">    -20.05120750 </i>
   </energy>
  </scstep>
  <scstep>
   <time name="total">    0.08    0.08</time>
   <energy>
    <i name="alphaZ">     30.12996246 </i>
    <i name="ewald">   -358.38817986 </i>
    <i name="hartreedc">    -50.07369303 </i>
    <i name="XCdc">     22.27688124 </i>
    <i name="pawpsdc">    941.23646577 </i>
    <i name="pawaedc">   -941.54441131 </i>
    <i name="eentropy">     -0.00000000 </i>
    <i name="bandstr">    -15.64825771 </i>
    <i name="atom">    332.23264155 </i>
    <i name="e_fr_energy">    -20.05120819 </i>
    <i name="e_wo_entrp">    -20.05120819 </i>
    <i name="e_0_energy">    -20.05120819 </i>
   </energy>
  </scstep>
  <structure>
   <crystal>
    <varray name="basis" >
     <v>       0.00000000       1.80750000       1.80750000 </v>
     <v>       1.80750000       0.00000000       1.80750000 </v>
     <v>       1.80750000       1.80750000       0.00000000 </v>
    </varray>
    <i name="volume">     11.81040834 </i>
    <varray name="rec_basis" >
     <v>      -0.27662517       0.27662517       0.27662517 </v>
     <v>       0.27662517      -0.27662517       0.27662517 </v>
     <v>       0.27662517       0.27662517      -0.27662517 </v>
    </varray>
   </crystal>
   <varray name="positions" >
    <v>       0.00000000       0.00000000       0.00000000 </v>
    <v>       0.25000000       0.25000000       0.25000000 </v>
   </varray>
  </structure>
  <varray name="forces" >
   <v>      -0.00000000      -0.00000000       0.00000000 </v>
   <v>       0.00000000       0.00000000      -0.00000000 </v>
  </varray>
  <energy>
   <i name="e_fr_energy">    -20.05120819 </i>
   <i name="e_wo_entrp">    -20.05120819 </i>
   <i name="e_0_energy">     -0.00000000 </i>
  </energy>
  <time name="totalsc">    0.83    0.83</time>
  <eigenvalues>
   <array>
    <dimension dim="1">band</dimension>
    <dimension dim="2">kpoint</dimension>
    <dimension dim="3">spin</dimension>
    <field>eigene</field>
    <field>occ</field>
    <set>
     <set comment="spin 1">
      <set comment="kpoint 1">
       <r>  -15.4931    1.0000 </r>
       <r>    6.5527    1.0000 </r>
       <r>    6.5527    1.0000 </r>
       <r>    6.5527    1.0000 </r>
       <r>   17.1853    0.0000 </r>
       <r>   17.1853    0.0000 </r>
       <r>   17.1853    0.0000 </r>
       <r>   18.8403    0.0000 </r>
      </set>
      <set comment="kpoint 2">
       <r>  -12.7581    1.0000 </r>
       <r>   -1.9596    1.0000 </r>
       <r>    4.8743    1.0000 </r>
       <r>    4.8743    1.0000 </r>
       <r>   18.2773    0.0000 </r>
       <r>   19.1115    0.0000 </r>
       <r>   19.1115    0.0000 </r>
       <r>   23.3105    0.0000 </r>
      </set>
      <set comment="kpoint 3">
       <r>  -11.8670    1.0000 </r>
       <r>   -0.0406    1.0000 </r>
       <r>    2.2023    1.0000 </r>
       <r>    2.2023    1.0000 </r>
       <r>   13.7724    0.0000 </r>
       <r>   18.5198    0.0000 </r>
       <r>   24.4616    0.0000 </r>
       <r>   24.4616    0.0000 </r>
      </set>
      <set comment="kpoint 4">
       <r>   -9.7272    1.0000 </r>
       <r>   -2.5257    1.0000 </r>
       <r>   -1.4256    1.0000 </r>
       <r>    2.7913    1.0000 </r>
       <r>   16.0001    0.0000 </r>
       <r>   23.1200    0.0000 </r>
       <r>   23.4091    0.0000 </r>
       <r>   24.9794    0.0000 </r>
      </set>
     </set>
    </set>
   </array>
  </eigenvalues>
  <separator name="orbital magnetization" >
   <v name="MAGDIPOLOUT">      0.00000000      0.00000000      0.00000000</v>
  </separator>
  <dos>
   <i name="efermi">      6.83931097 </i>
   <total>
    <array>
     <dimension dim="1">gridpoints</dimension>
     <dimension dim="2">spin</dimension>
     <field>energy</field>
     <field>total</field>
     <field>integrated</field>
     <set>
      <set comment="spin 1">
       <r>   -17.5167     0.0000     0.0000 </r>
       <r>   -17.3683     0.0000     0.0000 </r>
       <r>   -17.2199     0.0000     0.0000 </r>
       <r>   -17.0715     0.0000     0.0000 </r>
       <r>   -16.9231     0.0000     0.0000 </r>
       <r>   -16.7747     0.0000     0.0000 </r>
       <r>   -16.6263     0.0000     0.0000 </r>
       <r>   -16.4779     0.0000     0.0000 </r>
       <r>   -16.3295     0.0000     0.0000 </r>
       <r>   -16.1811     0.0000     0.0000 </r>
       <r>   -16.0327     0.0000     0.0000 </r>
       <r>   -15.8843     0.0000     0.0000 </r>
       <r>   -15.7359     0.0000     0.0000 </r>
       <r>   -15.5875     0.0019     0.0003 </r>
       <r>   -15.4391     0.4656     0.0694 </r>
       <r>   -15.2907     0.0317     0.0741 </r>
       <r>   -15.1423     0.0000     0.0741 </r>
       <r>   -14.9939     0.0000     0.0741 </r>
       <r>   -14.8455     0.0000     0.0741 </r>
       <r>   -14.6971     0.0000     0.0741 </r>
       <r>   -14.5487     0.0000     0.0741 </r>
       <r>   -14.4003     0.0000     0.0741 </r>
       <r>   -14.2519     0.0000     0.0741 </r>
       <r>   -14.1035     0.0000     0.0741 </r>
       <r>   -13.9551     0.0000     0.0741 </r>
       <r>   -13.8068     0.0000     0.0741 </r>
       <r>   -13.6584     0.0000     0.0741 </r>
       <r>   -13.5100     0.0000     0.0741 </r>
       <r>   -13.3616     0.0000     0.0741 </r>
       <r>   -13.2132     0.0000     0.0741 </r>
       <r>   -13.0648     0.0000     0.0741 </r>
       <r>   -12.9164     0.0000     0.0741 </r>
       <r>   -12.7680     1.5562     0.3050 </r>
       <r>   -12.6196     2.4369     0.6666 </r>
       <r>   -12.4712     0.0002     0.6667 </r>
       <r>   -12.3228     0.0000     0.6667 </r>
       <r>   -12.1744     0.0000     0.6667 </r>
       <r>   -12.0260     0.0000     0.6667 </r>
       <r>   -11.8776     1.1471     0.8369 </r>
       <r>   -11.7292     1.8477     1.1111 </r>
       <r>   -11.5808     0.0001     1.1111 </r>
       <r>   -11.4324     0.0000     1.1111 </r>
       <r>   -11.2840     0.0000     1.1111 </r>
       <r>   -11.1356     0.0000     1.1111 </r>
       <r>   -10.9872     0.0000     1.1111 </r>
       <r>   -10.8388     0.0000     1.1111 </r>
       <r>   -10.6904     0.0000     1.1111 </r>
       <r>   -10.5420     0.0000     1.1111 </r>
       <r>   -10.3936     0.0000     1.1111 </r>
       <r>   -10.2452     0.0000     1.1111 </r>
       <r>   -10.0968     0.0000     1.1111 </r>
       <r>    -9.9484     0.0000     1.1111 </r>
       <r>    -9.8000     0.1186     1.1287 </r>
       <r>    -9.6516     5.7742     1.9856 </r>
       <r>    -9.5032     0.0970     2.0000 </r>
       <r>    -9.3548     0.0000     2.0000 </r>
       <r>    -9.2064     0.0000     2.0000 </r>
       <r>    -9.0580     0.0000     2.0000 </r>
       <r>    -8.9096     0.0000     2.0000 </r>
       <r>    -8.7612     0.0000     2.0000 </r>
       <r>    -8.6128     0.0000     2.0000 </r>
       <r>    -8.4644     0.0000     2.0000 </r>
       <r>    -8.3160     0.0000     2.0000 </r>
       <r>    -8.1676     0.0000     2.0000 </r>
       <r>    -8.0192     0.0000     2.0000 </r>
       <r>    -7.8708     0.0000     2.0000 </r>
       <r>    -7.7224     0.0000     2.0000 </r>
       <r>    -7.5740     0.0000     2.0000 </r>
       <r>    -7.4256     0.0000     2.0000 </r>
       <r>    -7.2772     0.0000     2.0000 </r>
       <r>    -7.1288     0.0000     2.0000 </r>
       <r>    -6.9804     0.0000     2.0000 </r>
       <r>    -6.8320     0.0000     2.0000 </r>
       <r>    -6.6836     0.0000     2.0000 </r>
       <r>    -6.5352     0.0000     2.0000 </r>
       <r>    -6.3868     0.0000     2.0000 </r>
       <r>    -6.2384     0.0000     2.0000 </r>
       <r>    -6.0900     0.0000     2.0000 </r>
       <r>    -5.9416     0.0000     2.0000 </r>
       <r>    -5.7932     0.0000     2.0000 </r>
       <r>    -5.6448     0.0000     2.0000 </r>
       <r>    -5.4964     0.0000     2.0000 </r>
       <r>    -5.3480     0.0000     2.0000 </r>
       <r>    -5.1996     0.0000     2.0000 </r>
       <r>    -5.0512     0.0000     2.0000 </r>
       <r>    -4.9028     0.0000     2.0000 </r>
       <r>    -4.7544     0.0000     2.0000 </r>
       <r>    -4.6060     0.0000     2.0000 </r>
       <r>    -4.4576     0.0000     2.0000 </r>
       <r>    -4.3092     0.0000     2.0000 </r>
       <r>    -4.1608     0.0000     2.0000 </r>
       <r>    -4.0124     0.0000     2.0000 </r>
       <r>    -3.8640     0.0000     2.0000 </r>
       <r>    -3.7156     0.0000     2.0000 </r>
       <r>    -3.5672     0.0000     2.0000 </r>
       <r>    -3.4188     0.0000     2.0000 </r>
       <r>    -3.2704     0.0000     2.0000 </r>
       <r>    -3.1220     0.0000     2.0000 </r>
       <r>    -2.9736     0.0000     2.0000 </r>
       <r>    -2.8252     0.0000     2.0000 </r>
       <r>    -2.6768     0.0001     2.0000 </r>
       <r>    -2.5284     2.8139     2.4176 </r>
       <r>    -2.3800     3.1758     2.8889 </r>
       <r>    -2.2316     0.0001     2.8889 </r>
       <r>    -2.0832     0.0009     2.8890 </r>
       <r>    -1.9348     3.0291     3.3385 </r>
       <r>    -1.7864     0.9632     3.4815 </r>
       <r>    -1.6380     0.0000     3.4815 </r>
       <r>    -1.4896     0.2101     3.5127 </r>
       <r>    -1.3412     5.7288     4.3628 </r>
       <r>    -1.1928     0.0509     4.3704 </r>
       <r>    -1.0444     0.0000     4.3704 </r>
       <r>    -0.8960     0.0000     4.3704 </r>
       <r>    -0.7476     0.0000     4.3704 </r>
       <r>    -0.5992     0.0000     4.3704 </r>
       <r>    -0.4508     0.0000     4.3704 </r>
       <r>    -0.3024     0.0000     4.3704 </r>
       <r>    -0.1540     0.0020     4.3707 </r>
       <r>    -0.0056     2.5102     4.7432 </r>
       <r>     0.1428     0.4827     4.8148 </r>
       <r>     0.2912     0.0000     4.8148 </r>
       <r>     0.4396     0.0000     4.8148 </r>
       <r>     0.5880     0.0000     4.8148 </r>
       <r>     0.7364     0.0000     4.8148 </r>
       <r>     0.8848     0.0000     4.8148 </r>
       <r>     1.0332     0.0000     4.8148 </r>
       <r>     1.1816     0.0000     4.8148 </r>
       <r>     1.3300     0.0000     4.8148 </r>
       <r>     1.4784     0.0000     4.8148 </r>
       <r>     1.6268     0.0000     4.8148 </r>
       <r>     1.7752     0.0000     4.8148 </r>
       <r>     1.9236     0.0000     4.8148 </r>
       <r>     2.0720     0.0007     4.8149 </r>
       <r>     2.2204     4.1656     5.4331 </r>
       <r>     2.3688     1.8235     5.7037 </r>
       <r>     2.5172     0.0000     5.7037 </r>
       <r>     2.6656     0.0011     5.7039 </r>
       <r>     2.8140     4.4270     6.3608 </r>
       <r>     2.9624     1.5617     6.5926 </r>
       <r>     3.1108     0.0000     6.5926 </r>
       <r>     3.2592     0.0000     6.5926 </r>
       <r>     3.4076     0.0000     6.5926 </r>
       <r>     3.5560     0.0000     6.5926 </r>
       <r>     3.7044     0.0000     6.5926 </r>
       <r>     3.8528     0.0000     6.5926 </r>
       <r>     4.0012     0.0000     6.5926 </r>
       <r>     4.1496     0.0000     6.5926 </r>
       <r>     4.2980     0.0000     6.5926 </r>
       <r>     4.4464     0.0000     6.5926 </r>
       <r>     4.5948     0.0000     6.5926 </r>
       <r>     4.7432     0.0008     6.5927 </r>
       <r>     4.8916     5.4870     7.4070 </r>
       <r>     5.0400     2.4987     7.7778 </r>
       <r>     5.1884     0.0000     7.7778 </r>
       <r>     5.3368     0.0000     7.7778 </r>
       <r>     5.4852     0.0000     7.7778 </r>
       <r>     5.6336     0.0000     7.7778 </r>
       <r>     5.7820     0.0000     7.7778 </r>
       <r>     5.9304     0.0000     7.7778 </r>
       <r>     6.0788     0.0000     7.7778 </r>
       <r>     6.2272     0.0000     7.7778 </r>
       <r>     6.3756     0.0000     7.7778 </r>
       <r>     6.5240     0.3118     7.8240 </r>
       <r>     6.6724     1.1852     7.9999 </r>
       <r>     6.8208     0.0005     8.0000 </r>
       <r>     6.9692     0.0000     8.0000 </r>
       <r>     7.1176     0.0000     8.0000 </r>
       <r>     7.2660     0.0000     8.0000 </r>
       <r>     7.4144     0.0000     8.0000 </r>
       <r>     7.5628     0.0000     8.0000 </r>
       <r>     7.7112     0.0000     8.0000 </r>
       <r>     7.8596     0.0000     8.0000 </r>
       <r>     8.0080     0.0000     8.0000 </r>
       <r>     8.1564     0.0000     8.0000 </r>
       <r>     8.3048     0.0000     8.0000 </r>
       <r>     8.4532     0.0000     8.0000 </r>
       <r>     8.6016     0.0000     8.0000 </r>
       <r>     8.7500     0.0000     8.0000 </r>
       <r>     8.8984     0.0000     8.0000 </r>
       <r>     9.0468     0.0000     8.0000 </r>
       <r>     9.1952     0.0000     8.0000 </r>
       <r>     9.3436     0.0000     8.0000 </r>
       <r>     9.4919     0.0000     8.0000 </r>
       <r>     9.6403     0.0000     8.0000 </r>
       <r>     9.7887     0.0000     8.0000 </r>
       <r>     9.9371     0.0000     8.0000 </r>
       <r>    10.0855     0.0000     8.0000 </r>
       <r>    10.2339     0.0000     8.0000 </r>
       <r>    10.3823     0.0000     8.0000 </r>
       <r>    10.5307     0.0000     8.0000 </r>
       <r>    10.6791     0.0000     8.0000 </r>
       <r>    10.8275     0.0000     8.0000 </r>
       <r>    10.9759     0.0000     8.0000 </r>
       <r>    11.1243     0.0000     8.0000 </r>
       <r>    11.2727     0.0000     8.0000 </r>
       <r>    11.4211     0.0000     8.0000 </r>
       <r>    11.5695     0.0000     8.0000 </r>
       <r>    11.7179     0.0000     8.0000 </r>
       <r>    11.8663     0.0000     8.0000 </r>
       <r>    12.0147     0.0000     8.0000 </r>
       <r>    12.1631     0.0000     8.0000 </r>
       <r>    12.3115     0.0000     8.0000 </r>
       <r>    12.4599     0.0000     8.0000 </r>
       <r>    12.6083     0.0000     8.0000 </r>
       <r>    12.7567     0.0000     8.0000 </r>
       <r>    12.9051     0.0000     8.0000 </r>
       <r>    13.0535     0.0000     8.0000 </r>
       <r>    13.2019     0.0000     8.0000 </r>
       <r>    13.3503     0.0000     8.0000 </r>
       <r>    13.4987     0.0000     8.0000 </r>
       <r>    13.6471     0.0006     8.0001 </r>
       <r>    13.7955     2.2262     8.3305 </r>
       <r>    13.9439     0.7681     8.4444 </r>
       <r>    14.0923     0.0000     8.4444 </r>
       <r>    14.2407     0.0000     8.4444 </r>
       <r>    14.3891     0.0000     8.4444 </r>
       <r>    14.5375     0.0000     8.4444 </r>
       <r>    14.6859     0.0000     8.4444 </r>
       <r>    14.8343     0.0000     8.4444 </r>
       <r>    14.9827     0.0000     8.4444 </r>
       <r>    15.1311     0.0000     8.4444 </r>
       <r>    15.2795     0.0000     8.4444 </r>
       <r>    15.4279     0.0000     8.4444 </r>
       <r>    15.5763     0.0000     8.4444 </r>
       <r>    15.7247     0.0000     8.4444 </r>
       <r>    15.8731     0.0010     8.4446 </r>
       <r>    16.0215     4.3571     9.0912 </r>
       <r>    16.1699     1.6317     9.3333 </r>
       <r>    16.3183     0.0000     9.3333 </r>
       <r>    16.4667     0.0000     9.3333 </r>
       <r>    16.6151     0.0000     9.3333 </r>
       <r>    16.7635     0.0000     9.3333 </r>
       <r>    16.9119     0.0000     9.3333 </r>
       <r>    17.0603     0.0003     9.3334 </r>
       <r>    17.2087     1.1172     9.4992 </r>
       <r>    17.3571     0.3799     9.5556 </r>
       <r>    17.5055     0.0000     9.5556 </r>
       <r>    17.6539     0.0000     9.5556 </r>
       <r>    17.8023     0.0000     9.5556 </r>
       <r>    17.9507     0.0000     9.5556 </r>
       <r>    18.0991     0.0000     9.5556 </r>
       <r>    18.2475     0.7988     9.6741 </r>
       <r>    18.3959     3.1935    10.1480 </r>
       <r>    18.5443     2.2635    10.4839 </r>
       <r>    18.6927     0.7323    10.5926 </r>
       <r>    18.8411     0.2541    10.6303 </r>
       <r>    18.9895     0.2473    10.6670 </r>
       <r>    19.1379     6.1692    11.5825 </r>
       <r>    19.2863     1.8150    11.8519 </r>
       <r>    19.4347     0.0000    11.8519 </r>
       <r>    19.5831     0.0000    11.8519 </r>
       <r>    19.7315     0.0000    11.8519 </r>
       <r>    19.8799     0.0000    11.8519 </r>
       <r>    20.0283     0.0000    11.8519 </r>
       <r>    20.1767     0.0000    11.8519 </r>
       <r>    20.3251     0.0000    11.8519 </r>
       <r>    20.4735     0.0000    11.8519 </r>
       <r>    20.6219     0.0000    11.8519 </r>
       <r>    20.7703     0.0000    11.8519 </r>
       <r>    20.9187     0.0000    11.8519 </r>
       <r>    21.0671     0.0000    11.8519 </r>
       <r>    21.2155     0.0000    11.8519 </r>
       <r>    21.3639     0.0000    11.8519 </r>
       <r>    21.5123     0.0000    11.8519 </r>
       <r>    21.6607     0.0000    11.8519 </r>
       <r>    21.8091     0.0000    11.8519 </r>
       <r>    21.9575     0.0000    11.8519 </r>
       <r>    22.1059     0.0000    11.8519 </r>
       <r>    22.2543     0.0000    11.8519 </r>
       <r>    22.4027     0.0000    11.8519 </r>
       <r>    22.5511     0.0000    11.8519 </r>
       <r>    22.6995     0.0000    11.8519 </r>
       <r>    22.8479     0.0000    11.8519 </r>
       <r>    22.9963     0.0014    11.8521 </r>
       <r>    23.1447     4.5377    12.5255 </r>
       <r>    23.2931     2.6964    12.9256 </r>
       <r>    23.4415     7.6613    14.0625 </r>
       <r>    23.5899     1.0761    14.2222 </r>
       <r>    23.7383     0.0000    14.2222 </r>
       <r>    23.8867     0.0000    14.2222 </r>
       <r>    24.0351     0.0000    14.2222 </r>
       <r>    24.1835     0.0000    14.2222 </r>
       <r>    24.3319     0.0007    14.2223 </r>
       <r>    24.4803     4.1994    14.8455 </r>
       <r>    24.6287     1.7897    15.1111 </r>
       <r>    24.7771     0.0000    15.1111 </r>
       <r>    24.9255     0.3801    15.1675 </r>
       <r>    25.0739     5.5870    15.9966 </r>
       <r>    25.2223     0.0226    16.0000 </r>
       <r>    25.3707     0.0000    16.0000 </r>
       <r>    25.5191     0.0000    16.0000 </r>
       <r>    25.6675     0.0000    16.0000 </r>
       <r>    25.8159     0.0000    16.0000 </r>
       <r>    25.9643     0.0000    16.0000 </r>
       <r>    26.1127     0.0000    16.0000 </r>
       <r>    26.2611     0.0000    16.0000 </r>
       <r>    26.4095     0.0000    16.0000 </r>
       <r>    26.5579     0.0000    16.0000 </r>
       <r>    26.7063     0.0000    16.0000 </r>
       <r>    26.8547     0.0000    16.0000 </r>
       <r>    27.0031     0.0000    16.0000 </r>
      </set>
     </set>
    </array>
   </total>
  </dos>
 </calculation>
 <structure name="finalpos" >
  <crystal>
   <varray name="basis" >
    <v>       0.00000000       1.80750000       1.80750000 </v>
    <v>       1.80750000       0.00000000       1.80750000 </v>
    <v>       1.80750000       1.80750000       0.00000000 </v>
   </varray>
   <i name="volume">     11.81040834 </i>
   <varray name="rec_basis" >
    <v>      -0.27662517       0.27662517       0.27662517 </v>
    <v>       0.27662517      -0.27662517       0.27662517 </v>
    <v>       0.27662517       0.27662517      -0.27662517 </v>
   </varray>
  </crystal>
  <varray name="positions" >
   <v>       0.00000000       0.00000000       0.00000000 </v>
   <v>       0.25000000       0.25000000       0.25000000 </v>
  </varray>
 </structure>
</modeling>
