 running on   32 total cores
 distrk:  each k-point on   32 cores,    1 groups
 distr:  one band on    4 cores,    8 groups
 using from now: INCAR     
 vasp.5.4.4.18Apr17-6-g9f103f2a35 (build Mar 10 2026 18:13:51) complex          
  
 POSCAR found type information on POSCAR  B  N 
 POSCAR found :  2 types and       2 ions
 scaLAPACK will be used
 LDA part: xc-table for Pade appr. of Perdew
 found WAVECAR, reading the header
 POSCAR, INCAR and KPOINTS ok, starting setup
 FFT: planning ...
 reading WAVECAR
 the WAVECAR file was read successfully
 initial charge from wavefunction
 entering main loop
       N       E                     dE             d eps       ncg     rms          ort
 gam= 0.000 g(H,U,f)=  0.511E-01 0.477E-02 0.400E-12 ort(H,U,f) = 0.000E+00 0.000E+00 0.000E+00
SDA:   1    -0.200244527800E+02   -0.20024E+02   -0.22349E-01    32   0.559E-01 0.000E+00
 gam= 0.382 g(H,U,f)=  0.126E-01 0.399E-02 0.460E-20 ort(H,U,f) = 0.240E-01 0.422E-02 0.523E-20
DMP:   2    -0.200412691049E+02   -0.16816E-01   -0.10940E-01    32   0.166E-01 0.282E-01
 gam= 0.382 g(H,U,f)=  0.141E-02 0.255E-02 0.386E-20 ort(H,U,f) = 0.236E-02 0.430E-02 0.692E-20
DMP:   3    -0.200480602483E+02   -0.67911E-02   -0.26045E-02    32   0.397E-02 0.666E-02
 gam= 0.382 g(H,U,f)=  0.130E-02 0.113E-02 0.535E-18 ort(H,U,f) =-0.107E-02 0.267E-02 0.125E-17
DMP:   4    -0.200496753123E+02   -0.16151E-02   -0.12156E-02    32   0.242E-02 0.161E-02
 gam= 0.382 g(H,U,f)=  0.605E-03 0.358E-03 0.136E-12 ort(H,U,f) = 0.255E-03 0.114E-02 0.391E-12
DMP:   5    -0.200505581655E+02   -0.88285E-03   -0.59842E-03    32   0.963E-03 0.140E-02
 gam= 0.382 g(H,U,f)=  0.184E-03 0.104E-03 0.330E-19 ort(H,U,f) = 0.231E-03 0.370E-03 0.112E-18
DMP:   6    -0.200509763017E+02   -0.41814E-03   -0.20695E-03    32   0.288E-03 0.601E-03
 gam= 0.382 g(H,U,f)=  0.787E-04 0.391E-04 0.492E-22 ort(H,U,f) = 0.643E-04 0.119E-03 0.170E-21
DMP:   7    -0.200511161575E+02   -0.13986E-03   -0.75079E-04    32   0.118E-03 0.183E-03
 gam= 0.382 g(H,U,f)=  0.369E-04 0.175E-04 0.543E-23 ort(H,U,f) = 0.248E-04 0.499E-04 0.178E-22
DMP:   8    -0.200511685838E+02   -0.52426E-04   -0.33183E-04    32   0.544E-04 0.747E-04
 gam= 0.382 g(H,U,f)=  0.140E-04 0.757E-05 0.300E-14 ort(H,U,f) = 0.108E-04 0.238E-04 0.127E-13
DMP:   9    -0.200511921822E+02   -0.23598E-04   -0.13915E-04    32   0.216E-04 0.346E-04
 gam= 0.382 g(H,U,f)=  0.483E-05 0.325E-05 0.117E-15 ort(H,U,f) = 0.288E-05 0.109E-04 0.509E-15
DMP:  10    -0.200512020625E+02   -0.98803E-05   -0.53392E-05    32   0.808E-05 0.138E-04
 gam= 0.382 g(H,U,f)=  0.177E-05 0.143E-05 0.928E-17 ort(H,U,f) = 0.473E-06 0.487E-05 0.429E-16
DMP:  11    -0.200512059252E+02   -0.38627E-05   -0.20959E-05    32   0.320E-05 0.534E-05
 gam= 0.382 g(H,U,f)=  0.718E-06 0.647E-06 0.111E-17 ort(H,U,f) = 0.240E-06 0.216E-05 0.569E-17
DMP:  12    -0.200512074974E+02   -0.15722E-05   -0.91270E-06    32   0.136E-05 0.240E-05
 gam= 0.382 g(H,U,f)=  0.273E-06 0.288E-06 0.164E-18 ort(H,U,f) = 0.196E-06 0.959E-06 0.972E-18
DMP:  13    -0.200512081939E+02   -0.69641E-06   -0.40074E-06    32   0.561E-06 0.115E-05
 final diagonalization
   1 F= -.20051208E+02 E0= -.20051208E+02  d E =-.230366E-16
