 running on   32 total cores
 distrk:  each k-point on   32 cores,    1 groups
 distr:  one band on    4 cores,    8 groups
 using from now: INCAR     
 vasp.5.4.4.18Apr17-6-g9f103f2a35 (build Mar 10 2026 18:13:51) complex          
  
 POSCAR found type information on POSCAR  B  N 
 POSCAR found :  2 types and       2 ions
 scaLAPACK will be used
 LDA part: xc-table for Pade appr. of Perdew
 POSCAR, INCAR and KPOINTS ok, starting setup
 FFT: planning ...
 WAVECAR not read
 entering main loop
       N       E                     dE             d eps       ncg     rms          rms(c)
DAV:   1     0.269954682901E+01    0.26995E+01   -0.51989E+03    64   0.986E+02
DAV:   2    -0.180367257870E+02   -0.20736E+02   -0.20730E+02    96   0.161E+02
DAV:   3    -0.181530646953E+02   -0.11634E+00   -0.11634E+00    64   0.139E+01
DAV:   4    -0.181531762498E+02   -0.11155E-03   -0.11155E-03    96   0.405E-01
DAV:   5    -0.181531762647E+02   -0.14827E-07   -0.14827E-07    64   0.274E-03    0.695E+00
DAV:   6    -0.171729083104E+02    0.98027E+00   -0.37756E+00    88   0.144E+01    0.340E+00
DAV:   7    -0.170911337638E+02    0.81775E-01   -0.10865E-01    88   0.319E+00    0.197E+00
DAV:   8    -0.170760439356E+02    0.15090E-01   -0.46424E-02    64   0.200E+00    0.198E-01
DAV:   9    -0.170763318167E+02   -0.28788E-03   -0.67743E-04    64   0.277E-01    0.773E-02
DAV:  10    -0.170764264797E+02   -0.94663E-04   -0.15671E-04    80   0.128E-01    0.165E-02
DAV:  11    -0.170764323615E+02   -0.58818E-05   -0.89875E-06    88   0.299E-02    0.734E-03
DAV:  12    -0.170764323829E+02   -0.21442E-07   -0.14658E-06    32   0.101E-02
   1 F= -.17076432E+02 E0= -.17076432E+02  d E =-.137598E-14
 writing wavefunctions
