 DBCSR| CPU Multiplication driver                                           XSMM (U)
 DBCSR| Multrec recursion limit                                              512 (U)
 DBCSR| Multiplication stack size                                           1000 (D)
 DBCSR| Maximum elements for images                                    UNLIMITED (U)
 DBCSR| Multiplicative factor virtual images                                   1 (U)
 DBCSR| Use multiplication densification                                       T (D)
 DBCSR| Multiplication size stacks                                             3 (U)
 DBCSR| Use memory pool for CPU allocation                                     F (U)
 DBCSR| Number of 3D layers                                               SINGLE (U)
 DBCSR| Use MPI memory allocation                                              F (U)
 DBCSR| Use RMA algorithm                                                      F (U)
 DBCSR| Use Communication thread                                               T (U)
 DBCSR| Communication thread load                                             87 (D)
 DBCSR| MPI: My process id                                                     0
 DBCSR| MPI: Number of processes                                              32
 DBCSR| OMP: Current number of threads                                         1
 DBCSR| OMP: Max number of threads                                             1
 DBCSR| Split modifier for TAS multiplication algorithm                  1.0E+00 (U)


  **** **** ******  **  PROGRAM STARTED AT               2026-06-23 22:36:10.204
 ***** ** ***  *** **   PROGRAM STARTED ON                                  cu04
 **    ****   ******    PROGRAM STARTED BY                                 rudin
 ***** **    ** ** **   PROGRAM PROCESS ID                               3057182
  **** **  *******  **  PROGRAM STARTED IN /home/rudin/code/kylin-pbc/art/exampl
                                           e/extern/CsI-HSE06-sc333-cp2k-ADMM

 CP2K| version string:                                       CP2K version 2024.3
 CP2K| source code revision number:                                  git:6712648
 CP2K| cp2kflags: omp libint fftw3 libxc libgrpp elpa parallel scalapack mpi_f08
 CP2K|             cosma xsmm plumed2 spglib mkl libvori libbqb
 CP2K| is freely available from                            https://www.cp2k.org/
 CP2K| Program compiled at            2026年 01月 07日 星期三 01:43:54 CST
 CP2K| Program compiled on                                                  mu01
 CP2K| Program compiled for                                                local
 CP2K| Data directory path    /software/Applications/cp2k/cp2k-2024.3-oneapi-202
 CP2K| Input file name                                                  cp2k.inp
 
 GLOBAL| Force Environment number                                              1
 GLOBAL| Basis set file name                                        BASIS_MOLOPT
 GLOBAL| Potential file name                                      GTH_POTENTIALS
 GLOBAL| MM Potential file name                                     MM_POTENTIAL
 GLOBAL| Coordinate file name                                      __STD_INPUT__
 GLOBAL| Method name                                                        CP2K
 GLOBAL| Project name                                            CsI-HSE06-sc333
 GLOBAL| Run type                                                         ENERGY
 GLOBAL| FFT library                                                       FFTW3
 GLOBAL| Diagonalization library                                            ELPA
 GLOBAL| DGEMM library                                                      BLAS
 GLOBAL| Minimum number of eigenvectors for ELPA usage                        16
 GLOBAL| Orthonormality check for eigenvectors                          DISABLED
 GLOBAL| Matrix multiplication library                                     COSMA
 GLOBAL| All-to-all communication in single precision                          F
 GLOBAL| FFTs using library dependent lengths                                  F
 GLOBAL| Grid backend                                                       AUTO
 GLOBAL| Global print level                                               MEDIUM
 GLOBAL| MPI I/O enabled                                                       T
 GLOBAL| Total number of message passing processes                            32
 GLOBAL| Number of threads for this process                                    1
 GLOBAL| This output is from process                                           0
 GLOBAL| Stack size for threads created by OpenMP (OMP_STACKSIZE)        default
 GLOBAL| CPU model name                              INTEL(R) XEON(R) GOLD 6544Y
 GLOBAL| CPUID                                                              1003

 MEMORY| system memory details [Kb]
 MEMORY|                        rank 0           min           max       average
 MEMORY| MemTotal            527978088     527978088     527978088     527978088
 MEMORY| MemFree             519839708     519839708     519840212     519840196
 MEMORY| Buffers                   904           904           904           904
 MEMORY| Cached                 237428        237428        237428        237428
 MEMORY| Slab                  1615724       1615724       1615724       1615724
 MEMORY| SReclaimable          1163012       1163012       1163012       1163012
 MEMORY| MemLikelyFree       521241052     521241052     521241556     521241540


 *** Fundamental physical constants (SI units) ***

 *** Literature: B. J. Mohr and B. N. Taylor,
 ***             CODATA recommended values of the fundamental physical
 ***             constants: 2006, Web Version 5.1
 ***             http://physics.nist.gov/constants

 Speed of light in vacuum [m/s]                             2.99792458000000E+08
 Magnetic constant or permeability of vacuum [N/A**2]       1.25663706143592E-06
 Electric constant or permittivity of vacuum [F/m]          8.85418781762039E-12
 Planck constant (h) [J*s]                                  6.62606896000000E-34
 Planck constant (h-bar) [J*s]                              1.05457162825177E-34
 Elementary charge [C]                                      1.60217648700000E-19
 Electron mass [kg]                                         9.10938215000000E-31
 Electron g factor [ ]                                     -2.00231930436220E+00
 Proton mass [kg]                                           1.67262163700000E-27
 Fine-structure constant                                    7.29735253760000E-03
 Rydberg constant [1/m]                                     1.09737315685270E+07
 Avogadro constant [1/mol]                                  6.02214179000000E+23
 Boltzmann constant [J/K]                                   1.38065040000000E-23
 Atomic mass unit [kg]                                      1.66053878200000E-27
 Bohr radius [m]                                            5.29177208590000E-11

 *** Conversion factors ***

 [u] -> [a.u.]                                              1.82288848426455E+03
 [Angstrom] -> [Bohr] = [a.u.]                              1.88972613288564E+00
 [a.u.] = [Bohr] -> [Angstrom]                              5.29177208590000E-01
 [a.u.] -> [s]                                              2.41888432650478E-17
 [a.u.] -> [fs]                                             2.41888432650478E-02
 [a.u.] -> [J]                                              4.35974393937059E-18
 [a.u.] -> [N]                                              8.23872205491840E-08
 [a.u.] -> [K]                                              3.15774647902944E+05
 [a.u.] -> [kJ/mol]                                         2.62549961709828E+03
 [a.u.] -> [kcal/mol]                                       6.27509468713739E+02
 [a.u.] -> [Pa]                                             2.94210107994716E+13
 [a.u.] -> [bar]                                            2.94210107994716E+08
 [a.u.] -> [atm]                                            2.90362800883016E+08
 [a.u.] -> [eV]                                             2.72113838565563E+01
 [a.u.] -> [Hz]                                             6.57968392072181E+15
 [a.u.] -> [1/cm] (wave numbers)                            2.19474631370540E+05
 [a.u./Bohr**2] -> [1/cm]                                   5.14048714338585E+03
 

 CELL_TOP| Volume [angstrom^3]:                                      2571.916111
 CELL_TOP| Vector a [angstrom    13.701     0.000     0.000   |a| =    13.701000
 CELL_TOP| Vector b [angstrom     0.000    13.701     0.000   |b| =    13.701000
 CELL_TOP| Vector c [angstrom     0.000     0.000    13.701   |c| =    13.701000
 CELL_TOP| Angle (b,c), alpha [degree]:                                90.000000
 CELL_TOP| Angle (a,c), beta  [degree]:                                90.000000
 CELL_TOP| Angle (a,b), gamma [degree]:                                90.000000
 CELL_TOP| Numerically orthorhombic:                                         YES
 CELL_TOP| Periodicity                                                       XYZ
 
 GENERATE|  Preliminary Number of Bonds generated:                             0
 GENERATE|  Achieved consistency in connectivity generation.

 CELL| Volume [angstrom^3]:                                          2571.916111
 CELL| Vector a [angstrom]:      13.701     0.000     0.000   |a| =    13.701000
 CELL| Vector b [angstrom]:       0.000    13.701     0.000   |b| =    13.701000
 CELL| Vector c [angstrom]:       0.000     0.000    13.701   |c| =    13.701000
 CELL| Angle (b,c), alpha [degree]:                                    90.000000
 CELL| Angle (a,c), beta  [degree]:                                    90.000000
 CELL| Angle (a,b), gamma [degree]:                                    90.000000
 CELL| Numerically orthorhombic:                                             YES
 CELL| Periodicity                                                           XYZ

 CELL_REF| Volume [angstrom^3]:                                      2571.916111
 CELL_REF| Vector a [angstrom    13.701     0.000     0.000   |a| =    13.701000
 CELL_REF| Vector b [angstrom     0.000    13.701     0.000   |b| =    13.701000
 CELL_REF| Vector c [angstrom     0.000     0.000    13.701   |c| =    13.701000
 CELL_REF| Angle (b,c), alpha [degree]:                                90.000000
 CELL_REF| Angle (a,c), beta  [degree]:                                90.000000
 CELL_REF| Angle (a,b), gamma [degree]:                                90.000000
 CELL_REF| Numerically orthorhombic:                                         YES
 CELL_REF| Periodicity                                                       XYZ

 *******************************************************************************
 *******************************************************************************
 **                                                                           **
 **     #####                         ##              ##                      **
 **    ##   ##            ##          ##              ##                      **
 **   ##     ##                       ##            ######                    **
 **   ##     ##  ##   ##  ##   #####  ##  ##   ####   ##    #####    #####    **
 **   ##     ##  ##   ##  ##  ##      ## ##   ##      ##   ##   ##  ##   ##   **
 **   ##  ## ##  ##   ##  ##  ##      ####     ###    ##   ######   ######    **
 **    ##  ###   ##   ##  ##  ##      ## ##      ##   ##   ##       ##        **
 **     #######   #####   ##   #####  ##  ##  ####    ##    #####   ##        **
 **           ##                                                    ##        **
 **                                                                           **
 **                                                ... make the atoms dance   **
 **                                                                           **
 **            Copyright (C) by CP2K developers group (2000-2024)             **
 **                      J. Chem. Phys. 152, 194103 (2020)                    **
 **                                                                           **
 *******************************************************************************

 DFT| Spin restricted Kohn-Sham (RKS) calculation                            RKS
 DFT| Multiplicity                                                             1
 DFT| Number of spin states                                                    1
 DFT| Charge                                                                   0
 DFT| Self-interaction correction (SIC)                                       NO
 DFT| Cutoffs: density                                              1.000000E-10
 DFT|          gradient                                             1.000000E-10
 DFT|          tau                                                  1.000000E-10
 DFT|          cutoff_smoothing_range                               0.000000E+00
 DFT| XC density smoothing                                                  NONE
 DFT| XC derivatives                                                          PW

 FUNCTIONAL| PBE:
 FUNCTIONAL| J.P.Perdew, K.Burke, M.Ernzerhof, Phys. Rev. Letter, vol. 77, n 18,
 FUNCTIONAL|  pp. 3865-3868, (1996)sx=0.000sc=1.000{spin unpolarized}           
 FUNCTIONAL| XWPBE:
 FUNCTIONAL| Jochen Heyd and Gustavo E. Scuseria, J. Chem. Phys., 120, 7274 {LDA
 FUNCTIONAL|  version}                                                          


 QS| Method:                                                                 GPW
 QS| Density plane wave grid type                        NON-SPHERICAL FULLSPACE
 QS| Number of grid levels:                                                    4
 QS| Density cutoff [a.u.]:                                                300.0
 QS| Multi grid cutoff [a.u.]: 1) grid level                               300.0
 QS|                           2) grid level                               100.0
 QS|                           3) grid level                                33.3
 QS|                           4) grid level                                11.1
 QS| Grid level progression factor:                                          3.0
 QS| Relative density cutoff [a.u.]:                                        30.0
 QS| Interaction thresholds: eps_pgf_orb:                                1.0E-06
 QS|                         eps_filter_matrix:                          0.0E+00
 QS|                         eps_core_charge:                            1.0E-14
 QS|                         eps_rho_gspace:                             1.0E-12
 QS|                         eps_rho_rspace:                             1.0E-12
 QS|                         eps_gvg_rspace:                             1.0E-06
 QS|                         eps_ppl:                                    1.0E-02
 QS|                         eps_ppnl:                                   1.0E-08

 ADMM| Specific ADMM type specified                                        ADMMS
 ADMM| Density matrix purification method                                   NONE
 ADMM| Orbital projection with charge constrain
 ADMM| Use Merlot (2014) scaling model
 ADMM| eps_filter                                                0.000000000    
 ADMM| Exchange functional in correction term                            (W)PBEX



 ATOMIC KIND INFORMATION

  1. Atomic kind: Cs                                    Number of atoms:      27

     Orbital Basis Set                                        DZVP-MOLOPT-SR-GTH

       Number of orbital shell sets:                                           1
       Number of orbital shells:                                               6
       Number of primitive Cartesian functions:                                6
       Number of Cartesian basis functions:                                   15
       Number of spherical basis functions:                                   14
       Norm type:                                                              2

       Normalised Cartesian orbitals:

                        Set   Shell   Orbital            Exponent    Coefficient

                          1       1    2s                1.000866       0.374652
                                                         0.913482       0.447213
                                                         0.666654      -0.482233
                                                         0.332486      -0.299606
                                                         0.149837      -0.045594
                                                         0.026691       0.024754

                          1       2    3s                1.000866       0.063459
                                                         0.913482      -0.059302
                                                         0.666654       0.056266
                                                         0.332486      -0.135928
                                                         0.149837       0.012155
                                                         0.026691       0.050045

                          1       3    4s                1.000866       0.019138
                                                         0.913482       0.189431
                                                         0.666654      -0.298798
                                                         0.332486       0.818329
                                                         0.149837      -0.509541
                                                         0.026691       0.047786

                          1       4    3px               1.000866      -0.632251
                                                         0.913482      -0.025433
                                                         0.666654       0.528297
                                                         0.332486       0.148959
                                                         0.149837       0.056305
                                                         0.026691       0.000225
                          1       4    3py               1.000866      -0.632251
                                                         0.913482      -0.025433
                                                         0.666654       0.528297
                                                         0.332486       0.148959
                                                         0.149837       0.056305
                                                         0.026691       0.000225
                          1       4    3pz               1.000866      -0.632251
                                                         0.913482      -0.025433
                                                         0.666654       0.528297
                                                         0.332486       0.148959
                                                         0.149837       0.056305
                                                         0.026691       0.000225

                          1       5    4px               1.000866       0.003116
                                                         0.913482       0.100874
                                                         0.666654      -0.106148
                                                         0.332486      -0.012146
                                                         0.149837      -0.009508
                                                         0.026691       0.015912
                          1       5    4py               1.000866       0.003116
                                                         0.913482       0.100874
                                                         0.666654      -0.106148
                                                         0.332486      -0.012146
                                                         0.149837      -0.009508
                                                         0.026691       0.015912
                          1       5    4pz               1.000866       0.003116
                                                         0.913482       0.100874
                                                         0.666654      -0.106148
                                                         0.332486      -0.012146
                                                         0.149837      -0.009508
                                                         0.026691       0.015912

                          1       6    4dx2              1.000866       0.209582
                                                         0.913482       0.087006
                                                         0.666654      -0.167560
                                                         0.332486      -0.110462
                                                         0.149837      -0.034232
                                                         0.026691       0.000970
                          1       6    4dxy              1.000866       0.363006
                                                         0.913482       0.150699
                                                         0.666654      -0.290222
                                                         0.332486      -0.191325
                                                         0.149837      -0.059291
                                                         0.026691       0.001680
                          1       6    4dxz              1.000866       0.363006
                                                         0.913482       0.150699
                                                         0.666654      -0.290222
                                                         0.332486      -0.191325
                                                         0.149837      -0.059291
                                                         0.026691       0.001680
                          1       6    4dy2              1.000866       0.209582
                                                         0.913482       0.087006
                                                         0.666654      -0.167560
                                                         0.332486      -0.110462
                                                         0.149837      -0.034232
                                                         0.026691       0.000970
                          1       6    4dyz              1.000866       0.363006
                                                         0.913482       0.150699
                                                         0.666654      -0.290222
                                                         0.332486      -0.191325
                                                         0.149837      -0.059291
                                                         0.026691       0.001680
                          1       6    4dz2              1.000866       0.209582
                                                         0.913482       0.087006
                                                         0.666654      -0.167560
                                                         0.332486      -0.110462
                                                         0.149837      -0.034232
                                                         0.026691       0.000970

     Auxiliary Fit Basis Set                                               cFIT9

       Number of orbital shell sets:                                           5
       Number of orbital shells:                                               6
       Number of primitive Cartesian functions:                                9
       Number of Cartesian basis functions:                                   15
       Number of spherical basis functions:                                   14
       Norm type:                                                              2

       Normalised Cartesian orbitals:

                        Set   Shell   Orbital            Exponent    Coefficient

                          1       1    1s                0.028651       0.049632

                          2       1    1px               0.122048       0.102826
                          2       1    1py               0.122048       0.102826
                          2       1    1pz               0.122048       0.102826

                          3       1    1dx2              0.188631       0.088865
                          3       1    1dxy              0.188631       0.153919
                          3       1    1dxz              0.188631       0.153919
                          3       1    1dy2              0.188631       0.088865
                          3       1    1dyz              0.188631       0.153919
                          3       1    1dz2              0.188631       0.088865

                          4       1    1s                0.297349       0.162099
                                                         1.889678       1.830293
                                                         2.595939      -1.666310

                          4       2    2s                0.297349       0.321160
                                                         1.889678      -0.361189
                                                         2.595939       0.131906

                          5       1    1px               0.365432       0.434133
                                                         2.252491      -1.629960
                                                         2.842464       1.359963
                          5       1    1py               0.365432       0.434133
                                                         2.252491      -1.629960
                                                         2.842464       1.359963
                          5       1    1pz               0.365432       0.434133
                                                         2.252491      -1.629960
                                                         2.842464       1.359963

     RI HFX Basis Set                                            Cs-RI-AUX-cFIT9

       Number of orbital shell sets:                                           2
       Number of orbital shells:                                              21
       Number of primitive Cartesian functions:                                9
       Number of Cartesian basis functions:                                   81
       Number of spherical basis functions:                                   67
       Norm type:                                                              2

       Normalised Cartesian orbitals:

                        Set   Shell   Orbital            Exponent    Coefficient

                          1       1    1s                3.508115       1.826903
                                                         1.948953       0.000000
                                                         1.082752       0.000000
                                                         0.601529       0.000000
                                                         0.334183       0.000000
                                                         0.185657       0.000000
                                                         0.103143       0.000000
                                                         0.057302       0.000000

                          1       2    2s                3.508115      -4.949270
                                                         1.948953       3.394880
                                                         1.082752       0.000000
                                                         0.601529       0.000000
                                                         0.334183       0.000000
                                                         0.185657       0.000000
                                                         0.103143       0.000000
                                                         0.057302       0.000000

                          1       3    3s                3.508115       7.419555
                                                         1.948953      -9.974961
                                                         1.082752       3.769841
                                                         0.601529       0.000000
                                                         0.334183       0.000000
                                                         0.185657       0.000000
                                                         0.103143       0.000000
                                                         0.057302       0.000000

                          1       4    4s                3.508115      -8.150005
                                                         1.948953      15.337807
                                                         1.082752     -11.365540
                                                         0.601529       3.255925
                                                         0.334183       0.000000
                                                         0.185657       0.000000
                                                         0.103143       0.000000
                                                         0.057302       0.000000

                          1       5    5s                3.508115       7.516145
                                                         1.948953     -17.021550
                                                         1.082752      17.658638
                                                         0.601529      -9.922378
                                                         0.334183       2.459817
                                                         0.185657       0.000000
                                                         0.103143       0.000000
                                                         0.057302       0.000000

                          1       6    6s                3.508115      -6.280348
                                                         1.948953      15.770092
                                                         1.082752     -19.687688
                                                         0.601529      15.490183
                                                         0.334183      -7.534281
                                                         0.185657       1.727922
                                                         0.103143       0.000000
                                                         0.057302       0.000000

                          1       7    7s                3.508115       4.965912
                                                         1.948953     -13.205892
                                                         1.082752      18.279312
                                                         0.601529     -17.308036
                                                         0.334183      11.789546
                                                         0.185657      -5.305943
                                                         0.103143       1.166476
                                                         0.057302       0.000000

                          1       8    8s                3.508115      -3.808127
                                                         1.948953      10.453081
                                                         1.082752     -15.322809
                                                         0.601529      16.086494
                                                         0.334183     -13.187474
                                                         0.185657       8.312548
                                                         0.103143      -3.586608
                                                         0.057302       0.770524

                          1       9    2px               3.508115       6.843565
                                                         1.948953       0.000000
                                                         1.082752       0.000000
                                                         0.601529       0.000000
                                                         0.334183       0.000000
                                                         0.185657       0.000000
                                                         0.103143       0.000000
                                                         0.057302       0.000000
                          1       9    2py               3.508115       6.843565
                                                         1.948953       0.000000
                                                         1.082752       0.000000
                                                         0.601529       0.000000
                                                         0.334183       0.000000
                                                         0.185657       0.000000
                                                         0.103143       0.000000
                                                         0.057302       0.000000
                          1       9    2pz               3.508115       6.843565
                                                         1.948953       0.000000
                                                         1.082752       0.000000
                                                         0.601529       0.000000
                                                         0.334183       0.000000
                                                         0.185657       0.000000
                                                         0.103143       0.000000
                                                         0.057302       0.000000

                          1      10    3px               3.508115     -14.049973
                                                         1.948953       7.495736
                                                         1.082752       0.000000
                                                         0.601529       0.000000
                                                         0.334183       0.000000
                                                         0.185657       0.000000
                                                         0.103143       0.000000
                                                         0.057302       0.000000
                          1      10    3py               3.508115     -14.049973
                                                         1.948953       7.495736
                                                         1.082752       0.000000
                                                         0.601529       0.000000
                                                         0.334183       0.000000
                                                         0.185657       0.000000
                                                         0.103143       0.000000
                                                         0.057302       0.000000
                          1      10    3pz               3.508115     -14.049973
                                                         1.948953       7.495736
                                                         1.082752       0.000000
                                                         0.601529       0.000000
                                                         0.334183       0.000000
                                                         0.185657       0.000000
                                                         0.103143       0.000000
                                                         0.057302       0.000000

                          1      11    4px               3.508115      17.764875
                                                         1.948953     -17.862739
                                                         1.082752       5.443091
                                                         0.601529       0.000000
                                                         0.334183       0.000000
                                                         0.185657       0.000000
                                                         0.103143       0.000000
                                                         0.057302       0.000000
                          1      11    4py               3.508115      17.764875
                                                         1.948953     -17.862739
                                                         1.082752       5.443091
                                                         0.601529       0.000000
                                                         0.334183       0.000000
                                                         0.185657       0.000000
                                                         0.103143       0.000000
                                                         0.057302       0.000000
                          1      11    4pz               3.508115      17.764875
                                                         1.948953     -17.862739
                                                         1.082752       5.443091
                                                         0.601529       0.000000
                                                         0.334183       0.000000
                                                         0.185657       0.000000
                                                         0.103143       0.000000
                                                         0.057302       0.000000

                          1      12    5px               3.508115     -17.448657
                                                         1.948953      23.759944
                                                         1.082752     -13.659123
                                                         0.601529       3.243814
                                                         0.334183       0.000000
                                                         0.185657       0.000000
                                                         0.103143       0.000000
                                                         0.057302       0.000000
                          1      12    5py               3.508115     -17.448657
                                                         1.948953      23.759944
                                                         1.082752     -13.659123
                                                         0.601529       3.243814
                                                         0.334183       0.000000
                                                         0.185657       0.000000
                                                         0.103143       0.000000
                                                         0.057302       0.000000
                          1      12    5pz               3.508115     -17.448657
                                                         1.948953      23.759944
                                                         1.082752     -13.659123
                                                         0.601529       3.243814
                                                         0.334183       0.000000
                                                         0.185657       0.000000
                                                         0.103143       0.000000
                                                         0.057302       0.000000

                          1      13    6px               3.508115      14.912767
                                                         1.948953     -23.829982
                                                         1.082752      18.559160
                                                         0.601529      -8.322657
                                                         0.334183       1.744564
                                                         0.185657       0.000000
                                                         0.103143       0.000000
                                                         0.057302       0.000000
                          1      13    6py               3.508115      14.912767
                                                         1.948953     -23.829982
                                                         1.082752      18.559160
                                                         0.601529      -8.322657
                                                         0.334183       1.744564
                                                         0.185657       0.000000
                                                         0.103143       0.000000
                                                         0.057302       0.000000
                          1      13    6pz               3.508115      14.912767
                                                         1.948953     -23.829982
                                                         1.082752      18.559160
                                                         0.601529      -8.322657
                                                         0.334183       1.744564
                                                         0.185657       0.000000
                                                         0.103143       0.000000
                                                         0.057302       0.000000

                          1      14    7px               3.508115      -4.469743
                                                         1.948953       7.781347
                                                         1.082752      -7.112077
                                                         0.601529       4.322451
                                                         0.334183      -1.712034
                                                         0.185657       0.336439
                                                         0.103143       0.031538
                                                         0.057302       0.015127
                          1      14    7py               3.508115      -4.469743
                                                         1.948953       7.781347
                                                         1.082752      -7.112077
                                                         0.601529       4.322451
                                                         0.334183      -1.712034
                                                         0.185657       0.336439
                                                         0.103143       0.031538
                                                         0.057302       0.015127
                          1      14    7pz               3.508115      -4.469743
                                                         1.948953       7.781347
                                                         1.082752      -7.112077
                                                         0.601529       4.322451
                                                         0.334183      -1.712034
                                                         0.185657       0.336439
                                                         0.103143       0.031538
                                                         0.057302       0.015127

                          1      15    3dx2              3.508115      14.800918
                                                         1.948953       0.000000
                                                         1.082752       0.000000
                                                         0.601529       0.000000
                                                         0.334183       0.000000
                                                         0.185657       0.000000
                                                         0.103143       0.000000
                                                         0.057302       0.000000
                          1      15    3dxy              3.508115      25.635942
                                                         1.948953       0.000000
                                                         1.082752       0.000000
                                                         0.601529       0.000000
                                                         0.334183       0.000000
                                                         0.185657       0.000000
                                                         0.103143       0.000000
                                                         0.057302       0.000000
                          1      15    3dxz              3.508115      25.635942
                                                         1.948953       0.000000
                                                         1.082752       0.000000
                                                         0.601529       0.000000
                                                         0.334183       0.000000
                                                         0.185657       0.000000
                                                         0.103143       0.000000
                                                         0.057302       0.000000
                          1      15    3dy2              3.508115      14.800918
                                                         1.948953       0.000000
                                                         1.082752       0.000000
                                                         0.601529       0.000000
                                                         0.334183       0.000000
                                                         0.185657       0.000000
                                                         0.103143       0.000000
                                                         0.057302       0.000000
                          1      15    3dyz              3.508115      25.635942
                                                         1.948953       0.000000
                                                         1.082752       0.000000
                                                         0.601529       0.000000
                                                         0.334183       0.000000
                                                         0.185657       0.000000
                                                         0.103143       0.000000
                                                         0.057302       0.000000
                          1      15    3dz2              3.508115      14.800918
                                                         1.948953       0.000000
                                                         1.082752       0.000000
                                                         0.601529       0.000000
                                                         0.334183       0.000000
                                                         0.185657       0.000000
                                                         0.103143       0.000000
                                                         0.057302       0.000000

                          1      16    4dx2              3.508115     -25.117627
                                                         1.948953      10.422525
                                                         1.082752       0.000000
                                                         0.601529       0.000000
                                                         0.334183       0.000000
                                                         0.185657       0.000000
                                                         0.103143       0.000000
                                                         0.057302       0.000000
                          1      16    4dxy              3.508115     -43.505006
                                                         1.948953      18.052344
                                                         1.082752       0.000000
                                                         0.601529       0.000000
                                                         0.334183       0.000000
                                                         0.185657       0.000000
                                                         0.103143       0.000000
                                                         0.057302       0.000000
                          1      16    4dxz              3.508115     -43.505006
                                                         1.948953      18.052344
                                                         1.082752       0.000000
                                                         0.601529       0.000000
                                                         0.334183       0.000000
                                                         0.185657       0.000000
                                                         0.103143       0.000000
                                                         0.057302       0.000000
                          1      16    4dy2              3.508115     -25.117627
                                                         1.948953      10.422525
                                                         1.082752       0.000000
                                                         0.601529       0.000000
                                                         0.334183       0.000000
                                                         0.185657       0.000000
                                                         0.103143       0.000000
                                                         0.057302       0.000000
                          1      16    4dyz              3.508115     -43.505006
                                                         1.948953      18.052344
                                                         1.082752       0.000000
                                                         0.601529       0.000000
                                                         0.334183       0.000000
                                                         0.185657       0.000000
                                                         0.103143       0.000000
                                                         0.057302       0.000000
                          1      16    4dz2              3.508115     -25.117627
                                                         1.948953      10.422525
                                                         1.082752       0.000000
                                                         0.601529       0.000000
                                                         0.334183       0.000000
                                                         0.185657       0.000000
                                                         0.103143       0.000000
                                                         0.057302       0.000000

                          1      17    5dx2              3.508115      27.919424
                                                         1.948953     -21.032129
                                                         1.082752       5.159025
                                                         0.601529       0.000000
                                                         0.334183       0.000000
                                                         0.185657       0.000000
                                                         0.103143       0.000000
                                                         0.057302       0.000000
                          1      17    5dxy              3.508115      48.357861
                                                         1.948953     -36.428717
                                                         1.082752       8.935693
                                                         0.601529       0.000000
                                                         0.334183       0.000000
                                                         0.185657       0.000000
                                                         0.103143       0.000000
                                                         0.057302       0.000000
                          1      17    5dxz              3.508115      48.357861
                                                         1.948953     -36.428717
                                                         1.082752       8.935693
                                                         0.601529       0.000000
                                                         0.334183       0.000000
                                                         0.185657       0.000000
                                                         0.103143       0.000000
                                                         0.057302       0.000000
                          1      17    5dy2              3.508115      27.919424
                                                         1.948953     -21.032129
                                                         1.082752       5.159025
                                                         0.601529       0.000000
                                                         0.334183       0.000000
                                                         0.185657       0.000000
                                                         0.103143       0.000000
                                                         0.057302       0.000000
                          1      17    5dyz              3.508115      48.357861
                                                         1.948953     -36.428717
                                                         1.082752       8.935693
                                                         0.601529       0.000000
                                                         0.334183       0.000000
                                                         0.185657       0.000000
                                                         0.103143       0.000000
                                                         0.057302       0.000000
                          1      17    5dz2              3.508115      27.919424
                                                         1.948953     -21.032129
                                                         1.082752       5.159025
                                                         0.601529       0.000000
                                                         0.334183       0.000000
                                                         0.185657       0.000000
                                                         0.103143       0.000000
                                                         0.057302       0.000000

                          1      18    6dx2              3.508115     -25.090725
                                                         1.948953      24.825119
                                                         1.082752     -11.070968
                                                         0.601529       2.171589
                                                         0.334183       0.000000
                                                         0.185657       0.000000
                                                         0.103143       0.000000
                                                         0.057302       0.000000
                          1      18    6dxy              3.508115     -43.458411
                                                         1.948953      42.998367
                                                         1.082752     -19.175480
                                                         0.601529       3.761302
                                                         0.334183       0.000000
                                                         0.185657       0.000000
                                                         0.103143       0.000000
                                                         0.057302       0.000000
                          1      18    6dxz              3.508115     -43.458411
                                                         1.948953      42.998367
                                                         1.082752     -19.175480
                                                         0.601529       3.761302
                                                         0.334183       0.000000
                                                         0.185657       0.000000
                                                         0.103143       0.000000
                                                         0.057302       0.000000
                          1      18    6dy2              3.508115     -25.090725
                                                         1.948953      24.825119
                                                         1.082752     -11.070968
                                                         0.601529       2.171589
                                                         0.334183       0.000000
                                                         0.185657       0.000000
                                                         0.103143       0.000000
                                                         0.057302       0.000000
                          1      18    6dyz              3.508115     -43.458411
                                                         1.948953      42.998367
                                                         1.082752     -19.175480
                                                         0.601529       3.761302
                                                         0.334183       0.000000
                                                         0.185657       0.000000
                                                         0.103143       0.000000
                                                         0.057302       0.000000
                          1      18    6dz2              3.508115     -25.090725
                                                         1.948953      24.825119
                                                         1.082752     -11.070968
                                                         0.601529       2.171589
                                                         0.334183       0.000000
                                                         0.185657       0.000000
                                                         0.103143       0.000000
                                                         0.057302       0.000000

                          1      19    7dx2              3.508115       5.861424
                                                         1.948953      -6.654336
                                                         1.082752       3.899738
                                                         0.601529      -1.392403
                                                         0.334183       0.245391
                                                         0.185657       0.025154
                                                         0.103143       0.008992
                                                         0.057302       0.003215
                          1      19    7dxy              3.508115      10.152284
                                                         1.948953     -11.525648
                                                         1.082752       6.754545
                                                         0.601529      -2.411713
                                                         0.334183       0.425030
                                                         0.185657       0.043568
                                                         0.103143       0.015575
                                                         0.057302       0.005568
                          1      19    7dxz              3.508115      10.152284
                                                         1.948953     -11.525648
                                                         1.082752       6.754545
                                                         0.601529      -2.411713
                                                         0.334183       0.425030
                                                         0.185657       0.043568
                                                         0.103143       0.015575
                                                         0.057302       0.005568
                          1      19    7dy2              3.508115       5.861424
                                                         1.948953      -6.654336
                                                         1.082752       3.899738
                                                         0.601529      -1.392403
                                                         0.334183       0.245391
                                                         0.185657       0.025154
                                                         0.103143       0.008992
                                                         0.057302       0.003215
                          1      19    7dyz              3.508115      10.152284
                                                         1.948953     -11.525648
                                                         1.082752       6.754545
                                                         0.601529      -2.411713
                                                         0.334183       0.425030
                                                         0.185657       0.043568
                                                         0.103143       0.015575
                                                         0.057302       0.005568
                          1      19    7dz2              3.508115       5.861424
                                                         1.948953      -6.654336
                                                         1.082752       3.899738
                                                         0.601529      -1.392403
                                                         0.334183       0.245391
                                                         0.185657       0.025154
                                                         0.103143       0.008992
                                                         0.057302       0.003215

                          2       1    4fx3              0.310679       0.106085
                          2       1    4fx2y             0.310679       0.237214
                          2       1    4fx2z             0.310679       0.237214
                          2       1    4fxy2             0.310679       0.237214
                          2       1    4fxyz             0.310679       0.410866
                          2       1    4fxz2             0.310679       0.237214
                          2       1    4fy3              0.310679       0.106085
                          2       1    4fy2z             0.310679       0.237214
                          2       1    4fyz2             0.310679       0.237214
                          2       1    4fz3              0.310679       0.106085

                          2       2    5gx4              0.310679       0.044698
                          2       2    5gx3y             0.310679       0.118261
                          2       2    5gx3z             0.310679       0.118261
                          2       2    5gx2y2            0.310679       0.152674
                          2       2    5gx2yz            0.310679       0.264439
                          2       2    5gx2z2            0.310679       0.152674
                          2       2    5gxy3             0.310679       0.118261
                          2       2    5gxy2z            0.310679       0.264439
                          2       2    5gxyz2            0.310679       0.264439
                          2       2    5gxz3             0.310679       0.118261
                          2       2    5gy4              0.310679       0.044698
                          2       2    5gy3z             0.310679       0.118261
                          2       2    5gy2z2            0.310679       0.152674
                          2       2    5gyz3             0.310679       0.118261
                          2       2    5gz4              0.310679       0.044698

       Atomic covalent radius [Angstrom]:                                  2.350

       Atomic van der Waals radius [Angstrom]:                             3.430

     GTH Potential information for                                       GTH-PBE

       Description:                       Goedecker-Teter-Hutter pseudopotential
                                           Goedecker et al., PRB 54, 1703 (1996)
                                          Hartwigsen et al., PRB 58, 3641 (1998)
                                                      Krack, TCA 114, 145 (2005)

       Gaussian exponent of the core charge distribution:               1.714678
       Electronic configuration (s p d ...):                               3   6

       Parameters of the local part of the GTH pseudopotential:

                          rloc        C1          C2          C3          C4
                        0.540000   33.313317   -2.921217

       Parameters of the non-local part of the GTH pseudopotential:

                   l      r(l)      h(i,j,l)

                   0    0.461896   -3.322927    2.455653
                                    2.455653   -3.170235
                   1    0.366359   -4.950764    0.840390
                                    0.840390   -0.994363
                   2    0.761502    0.198407
                   3    0.597015   -1.550567

  2. Atomic kind: I                                     Number of atoms:      27

     Orbital Basis Set                                        DZVP-MOLOPT-SR-GTH

       Number of orbital shell sets:                                           1
       Number of orbital shells:                                               5
       Number of primitive Cartesian functions:                                5
       Number of Cartesian basis functions:                                   14
       Number of spherical basis functions:                                   13
       Norm type:                                                              2

       Normalised Cartesian orbitals:

                        Set   Shell   Orbital            Exponent    Coefficient

                          1       1    2s                0.966173      -0.369082
                                                         0.828886      -0.032154
                                                         0.367159       0.255166
                                                         0.201369       0.106471
                                                         0.083015       0.018311

                          1       2    3s                0.966173       0.683204
                                                         0.828886      -0.158631
                                                         0.367159       0.177969
                                                         0.201369      -0.294034
                                                         0.083015       0.146292

                          1       3    3px               0.966173      -1.009678
                                                         0.828886       0.783764
                                                         0.367159       0.107863
                                                         0.201369       0.101262
                                                         0.083015       0.016495
                          1       3    3py               0.966173      -1.009678
                                                         0.828886       0.783764
                                                         0.367159       0.107863
                                                         0.201369       0.101262
                                                         0.083015       0.016495
                          1       3    3pz               0.966173      -1.009678
                                                         0.828886       0.783764
                                                         0.367159       0.107863
                                                         0.201369       0.101262
                                                         0.083015       0.016495

                          1       4    4px               0.966173       0.359095
                                                         0.828886      -0.244536
                                                         0.367159      -0.104560
                                                         0.201369      -0.016515
                                                         0.083015       0.074319
                          1       4    4py               0.966173       0.359095
                                                         0.828886      -0.244536
                                                         0.367159      -0.104560
                                                         0.201369      -0.016515
                                                         0.083015       0.074319
                          1       4    4pz               0.966173       0.359095
                                                         0.828886      -0.244536
                                                         0.367159      -0.104560
                                                         0.201369      -0.016515
                                                         0.083015       0.074319

                          1       5    4dx2              0.966173       0.425303
                                                         0.828886      -0.290637
                                                         0.367159      -0.113356
                                                         0.201369      -0.050939
                                                         0.083015      -0.003796
                          1       5    4dxy              0.966173       0.736646
                                                         0.828886      -0.503397
                                                         0.367159      -0.196338
                                                         0.201369      -0.088229
                                                         0.083015      -0.006576
                          1       5    4dxz              0.966173       0.736646
                                                         0.828886      -0.503397
                                                         0.367159      -0.196338
                                                         0.201369      -0.088229
                                                         0.083015      -0.006576
                          1       5    4dy2              0.966173       0.425303
                                                         0.828886      -0.290637
                                                         0.367159      -0.113356
                                                         0.201369      -0.050939
                                                         0.083015      -0.003796
                          1       5    4dyz              0.966173       0.736646
                                                         0.828886      -0.503397
                                                         0.367159      -0.196338
                                                         0.201369      -0.088229
                                                         0.083015      -0.006576
                          1       5    4dz2              0.966173       0.425303
                                                         0.828886      -0.290637
                                                         0.367159      -0.113356
                                                         0.201369      -0.050939
                                                         0.083015      -0.003796

     Auxiliary Fit Basis Set                                               cFIT7

       Number of orbital shell sets:                                           5
       Number of orbital shells:                                               5
       Number of primitive Cartesian functions:                                7
       Number of Cartesian basis functions:                                   14
       Number of spherical basis functions:                                   13
       Norm type:                                                              2

       Normalised Cartesian orbitals:

                        Set   Shell   Orbital            Exponent    Coefficient

                          1       1    1px               0.091078       0.071319
                          1       1    1py               0.091078       0.071319
                          1       1    1pz               0.091078       0.071319

                          2       1    1s                0.116057       0.141715

                          3       1    1dx2              0.257632       0.153341
                          3       1    1dxy              0.257632       0.265594
                          3       1    1dxz              0.257632       0.265594
                          3       1    1dy2              0.257632       0.153341
                          3       1    1dyz              0.257632       0.265594
                          3       1    1dz2              0.257632       0.153341

                          4       1    1px               0.287339       0.318180
                                                         1.564489      -0.398811
                          4       1    1py               0.287339       0.318180
                                                         1.564489      -0.398811
                          4       1    1pz               0.287339       0.318180
                                                         1.564489      -0.398811

                          5       1    1s                0.332244      -0.499644
                                                         0.947611       0.623406

     RI HFX Basis Set                                             I-RI-AUX-cFIT7

       Number of orbital shell sets:                                           2
       Number of orbital shells:                                              17
       Number of primitive Cartesian functions:                                6
       Number of Cartesian basis functions:                                   75
       Number of spherical basis functions:                                   61
       Norm type:                                                              2

       Normalised Cartesian orbitals:

                        Set   Shell   Orbital            Exponent    Coefficient

                          1       1    1s                1.912194       1.158935
                                                         1.062330       0.000000
                                                         0.590183       0.000000
                                                         0.327880       0.000000
                                                         0.182155       0.000000

                          1       2    2s                1.912194      -3.139676
                                                         1.062330       2.153615
                                                         0.590183       0.000000
                                                         0.327880       0.000000
                                                         0.182155       0.000000

                          1       3    3s                1.912194       4.706754
                                                         1.062330      -6.327831
                                                         0.590183       2.391480
                                                         0.327880       0.000000
                                                         0.182155       0.000000

                          1       4    4s                1.912194      -5.170131
                                                         1.062330       9.729867
                                                         0.590183      -7.209974
                                                         0.327880       2.065466
                                                         0.182155       0.000000

                          1       5    5s                1.912194       4.768028
                                                         1.062330     -10.797986
                                                         0.590183      11.202136
                                                         0.327880      -6.294473
                                                         0.182155       1.560437

                          1       6    2px               1.912194       3.205200
                                                         1.062330       0.000000
                                                         0.590183       0.000000
                                                         0.327880       0.000000
                                                         0.182155       0.000000
                          1       6    2py               1.912194       3.205200
                                                         1.062330       0.000000
                                                         0.590183       0.000000
                                                         0.327880       0.000000
                                                         0.182155       0.000000
                          1       6    2pz               1.912194       3.205200
                                                         1.062330       0.000000
                                                         0.590183       0.000000
                                                         0.327880       0.000000
                                                         0.182155       0.000000

                          1       7    3px               1.912194      -6.580338
                                                         1.062330       3.510646
                                                         0.590183       0.000000
                                                         0.327880       0.000000
                                                         0.182155       0.000000
                          1       7    3py               1.912194      -6.580338
                                                         1.062330       3.510646
                                                         0.590183       0.000000
                                                         0.327880       0.000000
                                                         0.182155       0.000000
                          1       7    3pz               1.912194      -6.580338
                                                         1.062330       3.510646
                                                         0.590183       0.000000
                                                         0.327880       0.000000
                                                         0.182155       0.000000

                          1       8    4px               1.912194       8.320221
                                                         1.062330      -8.366056
                                                         0.590183       2.549285
                                                         0.327880       0.000000
                                                         0.182155       0.000000
                          1       8    4py               1.912194       8.320221
                                                         1.062330      -8.366056
                                                         0.590183       2.549285
                                                         0.327880       0.000000
                                                         0.182155       0.000000
                          1       8    4pz               1.912194       8.320221
                                                         1.062330      -8.366056
                                                         0.590183       2.549285
                                                         0.327880       0.000000
                                                         0.182155       0.000000

                          1       9    5px               1.912194      -8.172120
                                                         1.062330      11.128027
                                                         0.590183      -6.397283
                                                         0.327880       1.519248
                                                         0.182155       0.000000
                          1       9    5py               1.912194      -8.172120
                                                         1.062330      11.128027
                                                         0.590183      -6.397283
                                                         0.327880       1.519248
                                                         0.182155       0.000000
                          1       9    5pz               1.912194      -8.172120
                                                         1.062330      11.128027
                                                         0.590183      -6.397283
                                                         0.327880       1.519248
                                                         0.182155       0.000000

                          1      10    6px               1.912194       6.984430
                                                         1.062330     -11.160829
                                                         0.590183       8.692227
                                                         0.327880      -3.897936
                                                         0.182155       0.817071
                          1      10    6py               1.912194       6.984430
                                                         1.062330     -11.160829
                                                         0.590183       8.692227
                                                         0.327880      -3.897936
                                                         0.182155       0.817071
                          1      10    6pz               1.912194       6.984430
                                                         1.062330     -11.160829
                                                         0.590183       8.692227
                                                         0.327880      -3.897936
                                                         0.182155       0.817071

                          1      11    3dx2              1.912194       5.117885
                                                         1.062330       0.000000
                                                         0.590183       0.000000
                                                         0.327880       0.000000
                                                         0.182155       0.000000
                          1      11    3dxy              1.912194       8.864436
                                                         1.062330       0.000000
                                                         0.590183       0.000000
                                                         0.327880       0.000000
                                                         0.182155       0.000000
                          1      11    3dxz              1.912194       8.864436
                                                         1.062330       0.000000
                                                         0.590183       0.000000
                                                         0.327880       0.000000
                                                         0.182155       0.000000
                          1      11    3dy2              1.912194       5.117885
                                                         1.062330       0.000000
                                                         0.590183       0.000000
                                                         0.327880       0.000000
                                                         0.182155       0.000000
                          1      11    3dyz              1.912194       8.864436
                                                         1.062330       0.000000
                                                         0.590183       0.000000
                                                         0.327880       0.000000
                                                         0.182155       0.000000
                          1      11    3dz2              1.912194       5.117885
                                                         1.062330       0.000000
                                                         0.590183       0.000000
                                                         0.327880       0.000000
                                                         0.182155       0.000000

                          1      12    4dx2              1.912194      -8.685212
                                                         1.062330       3.603917
                                                         0.590183       0.000000
                                                         0.327880       0.000000
                                                         0.182155       0.000000
                          1      12    4dxy              1.912194     -15.043229
                                                         1.062330       6.242168
                                                         0.590183       0.000000
                                                         0.327880       0.000000
                                                         0.182155       0.000000
                          1      12    4dxz              1.912194     -15.043229
                                                         1.062330       6.242168
                                                         0.590183       0.000000
                                                         0.327880       0.000000
                                                         0.182155       0.000000
                          1      12    4dy2              1.912194      -8.685212
                                                         1.062330       3.603917
                                                         0.590183       0.000000
                                                         0.327880       0.000000
                                                         0.182155       0.000000
                          1      12    4dyz              1.912194     -15.043229
                                                         1.062330       6.242168
                                                         0.590183       0.000000
                                                         0.327880       0.000000
                                                         0.182155       0.000000
                          1      12    4dz2              1.912194      -8.685212
                                                         1.062330       3.603917
                                                         0.590183       0.000000
                                                         0.327880       0.000000
                                                         0.182155       0.000000

                          1      13    5dx2              1.912194       9.654022
                                                         1.062330      -7.272523
                                                         0.590183       1.783896
                                                         0.327880       0.000000
                                                         0.182155       0.000000
                          1      13    5dxy              1.912194      16.721257
                                                         1.062330     -12.596379
                                                         0.590183       3.089798
                                                         0.327880       0.000000
                                                         0.182155       0.000000
                          1      13    5dxz              1.912194      16.721257
                                                         1.062330     -12.596379
                                                         0.590183       3.089798
                                                         0.327880       0.000000
                                                         0.182155       0.000000
                          1      13    5dy2              1.912194       9.654022
                                                         1.062330      -7.272523
                                                         0.590183       1.783896
                                                         0.327880       0.000000
                                                         0.182155       0.000000
                          1      13    5dyz              1.912194      16.721257
                                                         1.062330     -12.596379
                                                         0.590183       3.089798
                                                         0.327880       0.000000
                                                         0.182155       0.000000
                          1      13    5dz2              1.912194       9.654022
                                                         1.062330      -7.272523
                                                         0.590183       1.783896
                                                         0.327880       0.000000
                                                         0.182155       0.000000

                          1      14    6dx2              1.912194      -8.675910
                                                         1.062330       8.584068
                                                         0.590183      -3.828137
                                                         0.327880       0.750895
                                                         0.182155       0.000000
                          1      14    6dxy              1.912194     -15.027117
                                                         1.062330      14.868043
                                                         0.590183      -6.630527
                                                         0.327880       1.300589
                                                         0.182155       0.000000
                          1      14    6dxz              1.912194     -15.027117
                                                         1.062330      14.868043
                                                         0.590183      -6.630527
                                                         0.327880       1.300589
                                                         0.182155       0.000000
                          1      14    6dy2              1.912194      -8.675910
                                                         1.062330       8.584068
                                                         0.590183      -3.828137
                                                         0.327880       0.750895
                                                         0.182155       0.000000
                          1      14    6dyz              1.912194     -15.027117
                                                         1.062330      14.868043
                                                         0.590183      -6.630527
                                                         0.327880       1.300589
                                                         0.182155       0.000000
                          1      14    6dz2              1.912194      -8.675910
                                                         1.062330       8.584068
                                                         0.590183      -3.828137
                                                         0.327880       0.750895
                                                         0.182155       0.000000

                          1      15    7dx2              1.912194       6.963953
                                                         1.062330      -7.906011
                                                         0.590183       4.633276
                                                         0.327880      -1.654313
                                                         0.182155       0.291549
                          1      15    7dxy              1.912194      12.061920
                                                         1.062330     -13.693613
                                                         0.590183       8.025069
                                                         0.327880      -2.865354
                                                         0.182155       0.504977
                          1      15    7dxz              1.912194      12.061920
                                                         1.062330     -13.693613
                                                         0.590183       8.025069
                                                         0.327880      -2.865354
                                                         0.182155       0.504977
                          1      15    7dy2              1.912194       6.963953
                                                         1.062330      -7.906011
                                                         0.590183       4.633276
                                                         0.327880      -1.654313
                                                         0.182155       0.291549
                          1      15    7dyz              1.912194      12.061920
                                                         1.062330     -13.693613
                                                         0.590183       8.025069
                                                         0.327880      -2.865354
                                                         0.182155       0.504977
                          1      15    7dz2              1.912194       6.963953
                                                         1.062330      -7.906011
                                                         0.590183       4.633276
                                                         0.327880      -1.654313
                                                         0.182155       0.291549

                          2       1    4fx3              0.348709       0.137562
                          2       1    4fx2y             0.348709       0.307597
                          2       1    4fx2z             0.348709       0.307597
                          2       1    4fxy2             0.348709       0.307597
                          2       1    4fxyz             0.348709       0.532774
                          2       1    4fxz2             0.348709       0.307597
                          2       1    4fy3              0.348709       0.137562
                          2       1    4fy2z             0.348709       0.307597
                          2       1    4fyz2             0.348709       0.307597
                          2       1    4fz3              0.348709       0.137562

                          2       2    5gx4              0.348709       0.061406
                          2       2    5gx3y             0.348709       0.162465
                          2       2    5gx3z             0.348709       0.162465
                          2       2    5gx2y2            0.348709       0.209741
                          2       2    5gx2yz            0.348709       0.363282
                          2       2    5gx2z2            0.348709       0.209741
                          2       2    5gxy3             0.348709       0.162465
                          2       2    5gxy2z            0.348709       0.363282
                          2       2    5gxyz2            0.348709       0.363282
                          2       2    5gxz3             0.348709       0.162465
                          2       2    5gy4              0.348709       0.061406
                          2       2    5gy3z             0.348709       0.162465
                          2       2    5gy2z2            0.348709       0.209741
                          2       2    5gyz3             0.348709       0.162465
                          2       2    5gz4              0.348709       0.061406

       Atomic covalent radius [Angstrom]:                                  1.330

       Atomic van der Waals radius [Angstrom]:                             1.980

     GTH Potential information for                                       GTH-PBE

       Description:                       Goedecker-Teter-Hutter pseudopotential
                                           Goedecker et al., PRB 54, 1703 (1996)
                                          Hartwigsen et al., PRB 58, 3641 (1998)
                                                      Krack, TCA 114, 145 (2005)

       Gaussian exponent of the core charge distribution:               1.594388
       Electronic configuration (s p d ...):                               2   5

       Parameters of the local part of the GTH pseudopotential:

                          rloc        C1          C2          C3          C4
                        0.560000    8.207102

       Parameters of the non-local part of the GTH pseudopotential:

                   l      r(l)      h(i,j,l)

                   0    0.531928    2.308146    1.003909   -0.959156
                                    1.003909   -2.856109    2.476530
                                   -0.959156    2.476530   -1.965685
                   1    0.589182    0.906482    0.425071
                                    0.425071   -0.502950
                   2    0.739721    0.479195


 MOLECULE KIND INFORMATION


 All atoms are their own molecule, skipping detailed information


 TOTAL NUMBERS AND MAXIMUM NUMBERS

  Total number of            - Atomic kinds:                                   2
                             - Atoms:                                         54
                             - Shell sets:                                    54
                             - Shells:                                       297
                             - Primitive Cartesian functions:                297
                             - Cartesian basis functions:                    783
                             - Spherical basis functions:                    729

  Maximum angular momentum of- Orbital basis functions:                        2
                             - Local part of the GTH pseudopotential:          2
                             - Non-local part of the GTH pseudopotential:      4

  AUX_FIT ADMM-Basis: 
  Total number of            - Shell sets:                                   270
                             - Shells:                                       297
                             - Primitive Cartesian functions:                432
                             - Cartesian basis functions:                    783
                             - Spherical basis functions:                    729
                               Maximum angular momentum                        2


 MODULE QUICKSTEP: ATOMIC COORDINATES IN ANGSTROM

   Atom Kind Element         X             Y             Z       Z(eff)     Mass
      1    1 Cs   55      0.000000      0.000000      0.000000   9.0000 132.9055
      2    2 I    53      2.283500      2.283500      2.283500   7.0000 126.9045
      3    1 Cs   55      0.000000      0.000000      4.567000   9.0000 132.9055
      4    2 I    53      2.283500      2.283500      6.850500   7.0000 126.9045
      5    1 Cs   55      0.000000      0.000000      9.134000   9.0000 132.9055
      6    2 I    53      2.283500      2.283500     11.417500   7.0000 126.9045
      7    1 Cs   55      0.000000      4.567000      0.000000   9.0000 132.9055
      8    2 I    53      2.283500      6.850500      2.283500   7.0000 126.9045
      9    1 Cs   55      0.000000      4.567000      4.567000   9.0000 132.9055
     10    2 I    53      2.283500      6.850500      6.850500   7.0000 126.9045
     11    1 Cs   55      0.000000      4.567000      9.134000   9.0000 132.9055
     12    2 I    53      2.283500      6.850500     11.417500   7.0000 126.9045
     13    1 Cs   55      0.000000      9.134000      0.000000   9.0000 132.9055
     14    2 I    53      2.283500     11.417500      2.283500   7.0000 126.9045
     15    1 Cs   55      0.000000      9.134000      4.567000   9.0000 132.9055
     16    2 I    53      2.283500     11.417500      6.850500   7.0000 126.9045
     17    1 Cs   55      0.000000      9.134000      9.134000   9.0000 132.9055
     18    2 I    53      2.283500     11.417500     11.417500   7.0000 126.9045
     19    1 Cs   55      4.567000      0.000000      0.000000   9.0000 132.9055
     20    2 I    53      6.850500      2.283500      2.283500   7.0000 126.9045
     21    1 Cs   55      4.567000      0.000000      4.567000   9.0000 132.9055
     22    2 I    53      6.850500      2.283500      6.850500   7.0000 126.9045
     23    1 Cs   55      4.567000      0.000000      9.134000   9.0000 132.9055
     24    2 I    53      6.850500      2.283500     11.417500   7.0000 126.9045
     25    1 Cs   55      4.567000      4.567000      0.000000   9.0000 132.9055
     26    2 I    53      6.850500      6.850500      2.283500   7.0000 126.9045
     27    1 Cs   55      4.567000      4.567000      4.567000   9.0000 132.9055
     28    2 I    53      6.850500      6.850500      6.850500   7.0000 126.9045
     29    1 Cs   55      4.567000      4.567000      9.134000   9.0000 132.9055
     30    2 I    53      6.850500      6.850500     11.417500   7.0000 126.9045
     31    1 Cs   55      4.567000      9.134000      0.000000   9.0000 132.9055
     32    2 I    53      6.850500     11.417500      2.283500   7.0000 126.9045
     33    1 Cs   55      4.567000      9.134000      4.567000   9.0000 132.9055
     34    2 I    53      6.850500     11.417500      6.850500   7.0000 126.9045
     35    1 Cs   55      4.567000      9.134000      9.134000   9.0000 132.9055
     36    2 I    53      6.850500     11.417500     11.417500   7.0000 126.9045
     37    1 Cs   55      9.134000      0.000000      0.000000   9.0000 132.9055
     38    2 I    53     11.417500      2.283500      2.283500   7.0000 126.9045
     39    1 Cs   55      9.134000      0.000000      4.567000   9.0000 132.9055
     40    2 I    53     11.417500      2.283500      6.850500   7.0000 126.9045
     41    1 Cs   55      9.134000      0.000000      9.134000   9.0000 132.9055
     42    2 I    53     11.417500      2.283500     11.417500   7.0000 126.9045
     43    1 Cs   55      9.134000      4.567000      0.000000   9.0000 132.9055
     44    2 I    53     11.417500      6.850500      2.283500   7.0000 126.9045
     45    1 Cs   55      9.134000      4.567000      4.567000   9.0000 132.9055
     46    2 I    53     11.417500      6.850500      6.850500   7.0000 126.9045
     47    1 Cs   55      9.134000      4.567000      9.134000   9.0000 132.9055
     48    2 I    53     11.417500      6.850500     11.417500   7.0000 126.9045
     49    1 Cs   55      9.134000      9.134000      0.000000   9.0000 132.9055
     50    2 I    53     11.417500     11.417500      2.283500   7.0000 126.9045
     51    1 Cs   55      9.134000      9.134000      4.567000   9.0000 132.9055
     52    2 I    53     11.417500     11.417500      6.850500   7.0000 126.9045
     53    1 Cs   55      9.134000      9.134000      9.134000   9.0000 132.9055
     54    2 I    53     11.417500     11.417500     11.417500   7.0000 126.9045



 SCF PARAMETERS         Density guess:                                    ATOMIC
                        --------------------------------------------------------
                        max_scf:                                             200
                        max_scf_history:                                       0
                        max_diis:                                              4
                        --------------------------------------------------------
                        eps_scf:                                        1.00E-06
                        eps_scf_history:                                0.00E+00
                        eps_diis:                                       5.00E-02
                        eps_eigval:                                     1.00E-05
                        --------------------------------------------------------
                        level_shift [a.u.]:                             0.000000
                        --------------------------------------------------------
                        Mixing method:                            BROYDEN_MIXING
                                                charge density mixing in g-space
                        --------------------------------------------------------
                        No outer SCF

 PW_GRID| Information for grid number                                          1
 PW_GRID| Grid distributed over                                    32 processors
 PW_GRID| Real space group dimensions                                    32    1
 PW_GRID| the grid is blocked:                                                NO
 PW_GRID| Cutoff [a.u.]                                                    300.0
 PW_GRID| spherical cutoff:                                                   NO
 PW_GRID|   Bounds   1           -108     107                Points:         216
 PW_GRID|   Bounds   2           -108     107                Points:         216
 PW_GRID|   Bounds   3           -108     107                Points:         216
 PW_GRID| Volume element (a.u.^3)  0.1722E-02     Volume (a.u.^3)     17356.1504
 PW_GRID| Grid span                                                    FULLSPACE
 PW_GRID|   Distribution                         Average         Max         Min
 PW_GRID|   G-Vectors                           314928.0      314928      314928
 PW_GRID|   G-Rays                                1458.0        1458        1458
 PW_GRID|   Real Space Points                   314928.0      326592      279936

 PW_GRID| Information for grid number                                          2
 PW_GRID| Number of the reference grid                                         1
 PW_GRID| Grid distributed over                                    32 processors
 PW_GRID| Real space group dimensions                                    32    1
 PW_GRID| the grid is blocked:                                                NO
 PW_GRID| Cutoff [a.u.]                                                    100.0
 PW_GRID| spherical cutoff:                                                   NO
 PW_GRID|   Bounds   1            -60      59                Points:         120
 PW_GRID|   Bounds   2            -60      59                Points:         120
 PW_GRID|   Bounds   3            -60      59                Points:         120
 PW_GRID| Volume element (a.u.^3)  0.1004E-01     Volume (a.u.^3)     17356.1504
 PW_GRID| Grid span                                                    FULLSPACE
 PW_GRID|   Distribution                         Average         Max         Min
 PW_GRID|   G-Vectors                            54000.0       54120       53880
 PW_GRID|   G-Rays                                 450.0         451         449
 PW_GRID|   Real Space Points                    54000.0       57600       43200

 PW_GRID| Information for grid number                                          3
 PW_GRID| Number of the reference grid                                         1
 PW_GRID| Grid distributed over                                    32 processors
 PW_GRID| Real space group dimensions                                    32    1
 PW_GRID| the grid is blocked:                                                NO
 PW_GRID| Cutoff [a.u.]                                                     33.3
 PW_GRID| spherical cutoff:                                                   NO
 PW_GRID|   Bounds   1            -36      35                Points:          72
 PW_GRID|   Bounds   2            -36      35                Points:          72
 PW_GRID|   Bounds   3            -36      35                Points:          72
 PW_GRID| Volume element (a.u.^3)  0.4650E-01     Volume (a.u.^3)     17356.1504
 PW_GRID| Grid span                                                    FULLSPACE
 PW_GRID|   Distribution                         Average         Max         Min
 PW_GRID|   G-Vectors                            11664.0       11736       11592
 PW_GRID|   G-Rays                                 162.0         163         161
 PW_GRID|   Real Space Points                    11664.0       15552       10368

 PW_GRID| Information for grid number                                          4
 PW_GRID| Number of the reference grid                                         1
 PW_GRID| Grid distributed over                                    32 processors
 PW_GRID| Real space group dimensions                                    32    1
 PW_GRID| the grid is blocked:                                                NO
 PW_GRID| Cutoff [a.u.]                                                     11.1
 PW_GRID| spherical cutoff:                                                   NO
 PW_GRID|   Bounds   1            -20      19                Points:          40
 PW_GRID|   Bounds   2            -20      19                Points:          40
 PW_GRID|   Bounds   3            -20      19                Points:          40
 PW_GRID| Volume element (a.u.^3)  0.2712         Volume (a.u.^3)     17356.1504
 PW_GRID| Grid span                                                    FULLSPACE
 PW_GRID|   Distribution                         Average         Max         Min
 PW_GRID|   G-Vectors                             2000.0        2040        1960
 PW_GRID|   G-Rays                                  50.0          51          49
 PW_GRID|   Real Space Points                     2000.0        3200        1600

 POISSON| Solver                                                        PERIODIC
 POISSON| Periodicity                                                        XYZ

 RS_GRID| Information for grid number                                          1
 RS_GRID|   Bounds   1           -108     107                Points:         216
 RS_GRID|   Bounds   2           -108     107                Points:         216
 RS_GRID|   Bounds   3           -108     107                Points:         216
 RS_GRID| Real space distribution over                                  4 groups
 RS_GRID| Real space distribution along direction                              2
 RS_GRID| Border size                                                         38
 RS_GRID| Real space distribution over                                  8 groups
 RS_GRID| Real space distribution along direction                              3
 RS_GRID| Border size                                                         38
 RS_GRID|   Distribution                         Average         Max         Min
 RS_GRID|   Planes                                 130.0         130         130
 RS_GRID|   Distribution                         Average         Max         Min
 RS_GRID|   Planes                                 103.0         103         103

 RS_GRID| Information for grid number                                          2
 RS_GRID|   Bounds   1            -60      59                Points:         120
 RS_GRID|   Bounds   2            -60      59                Points:         120
 RS_GRID|   Bounds   3            -60      59                Points:         120
 RS_GRID| Real space distribution over                                  4 groups
 RS_GRID| Real space distribution along direction                              2
 RS_GRID| Border size                                                         29
 RS_GRID| Real space distribution over                                  8 groups
 RS_GRID| Real space distribution along direction                              3
 RS_GRID| Border size                                                         29
 RS_GRID|   Distribution                         Average         Max         Min
 RS_GRID|   Planes                                  88.0          88          88
 RS_GRID|   Distribution                         Average         Max         Min
 RS_GRID|   Planes                                  73.0          73          73

 RS_GRID| Information for grid number                                          3
 RS_GRID|   Bounds   1            -36      35                Points:          72
 RS_GRID|   Bounds   2            -36      35                Points:          72
 RS_GRID|   Bounds   3            -36      35                Points:          72
 RS_GRID| Real space fully replicated
 RS_GRID| Group size                                                           1

 RS_GRID| Information for grid number                                          4
 RS_GRID|   Bounds   1            -20      19                Points:          40
 RS_GRID|   Bounds   2            -20      19                Points:          40
 RS_GRID|   Bounds   3            -20      19                Points:          40
 RS_GRID| Real space fully replicated
 RS_GRID| Group size                                                           1

 *** WARNING in hfx_types.F:2091 :: Periodic Hartree Fock calculation   ***
 *** requested with the use of a truncated or shortrange potential. The ***
 *** cutoff radius is larger than half the minimal cell dimension. This ***
 *** may lead to unphysical total energies. Reduce the cutoff radius in ***
 *** order to avoid possible problems.                                  ***


  HFX_INFO| Replica ID:                                                        1
  HFX_INFO| FRACTION:                                               0.2500000000
  HFX_INFO| Interaction Potential:                                    SHORTRANGE
  HFX_INFO| Omega:                                                  0.1100000000
  HFX_INFO| Cutoff Radius [angstrom]:                              20.0467199179
  HFX_RI_INFO| RI metric:                                             SHORTRANGE
  HFX_RI_INFO| Omega:                                               0.1100000000
  HFX_RI_INFO| Cutoff Radius [angstrom]:                           20.0467199179
  HFX_RI_INFO| RI flavor:                                                    RHO
  HFX_RI_INFO| EPS_FILTER                                                1.0E-09
  HFX_RI_INFO| EPS_FILTER 2-center                                       1.0E-12
  HFX_RI_INFO| EPS_FILTER storage                                        1.0E-11
  HFX_RI_INFO| EPS_FILTER MO                                             1.0E-12
  HFX_RI_INFO| EPS_PGF_ORB                                               1.0E-06
  HFX_RI_INFO| EPS_SCHWARZ:                                              1.0E-10
  HFX_RI_INFO| EPS_SCHWARZ_FORCES:                                       1.0E-08
  HFX_RI_INFO| Minimum block size                                              4
  HFX_RI_INFO| MO block size                                                  64
  HFX_RI_INFO| Memory reduction factor                                         3

 Number of electrons:                                                        432
 Number of occupied orbitals:                                                216
 Number of molecular orbitals:                                               216

 Number of orbital functions:                                                729
 Number of independent orbital functions:                                    729

 Extrapolation method: initial_guess

 Atomic guess: The first density matrix is obtained in terms of atomic orbitals
               and electronic configurations assigned to each atomic kind

 Guess for atomic kind: Cs

 Electronic structure
    Total number of core electrons                                         46.00
    Total number of valence electrons                                       9.00
    Total number of electrons                                              55.00
    Multiplicity                                                   not specified
    S   [  2.00  2.00  2.00  2.00] 2.00  1.00
    P   [  6.00  6.00  6.00] 6.00
    D   [ 10.00 10.00]
 

 *******************************************************************************
                  Iteration          Convergence                     Energy [au]
 *******************************************************************************
                          1        0.217823                     -19.955577345183
                          2        0.458189E-01                 -19.991365249718
                          3        0.800284E-03                 -19.992243521365
                          4        0.308329E-05                 -19.992243799227
                          5        0.172284E-07                 -19.992243799230

 Energy components [Hartree]           Total Energy ::          -19.992243799230
                                        Band Energy ::           -4.905196256014
                                     Kinetic Energy ::            5.178742025475
                                   Potential Energy ::          -25.170985824705
                                      Virial (-V/T) ::            4.860444042373
                                        Core Energy ::          -32.972937773906
                                          XC Energy ::           -3.037331543174
                                     Coulomb Energy ::           16.018025517850
                       Total Pseudopotential Energy ::          -38.193813522810
                       Local Pseudopotential Energy ::          -37.110283622776
                    Nonlocal Pseudopotential Energy ::           -1.083529900034
                                        Confinement ::            0.421337234293

 Orbital energies  State     L     Occupation   Energy[a.u.]          Energy[eV]

                       1     0          2.000      -0.967551          -26.328405
                       2     0          1.000      -0.059150           -1.609558
 
                       1     1          6.000      -0.485157          -13.201802
 

 Total Electron Density at R=0:                                         0.001325

 Guess for atomic kind: I

 Electronic structure
    Total number of core electrons                                         46.00
    Total number of valence electrons                                       7.00
    Total number of electrons                                              53.00
    Multiplicity                                                   not specified
    S   [  2.00  2.00  2.00  2.00] 2.00
    P   [  6.00  6.00  6.00] 5.00
    D   [ 10.00 10.00]
 

 *******************************************************************************
                  Iteration          Convergence                     Energy [au]
 *******************************************************************************
                          1        0.599523                     -11.164057164711
                          2        0.298319                     -11.261731112738
                          3        0.574035E-02                 -11.285207750878
                          4        0.213047E-01                 -11.285088649593
                          5        0.503516E-02                 -11.285209895964
                          6        0.378699E-02                 -11.285213000175
                          7        0.211745E-05                 -11.285217040406
                          8        0.233772E-06                 -11.285217040407

 Energy components [Hartree]           Total Energy ::          -11.285217040407
                                        Band Energy ::           -2.419961106938
                                     Kinetic Energy ::            3.273267224605
                                   Potential Energy ::          -14.558484265012
                                      Virial (-V/T) ::            4.447691943871
                                        Core Energy ::          -18.661808374058
                                          XC Energy ::           -2.141850400045
                                     Coulomb Energy ::            9.518441733696
                       Total Pseudopotential Energy ::          -22.013519462584
                       Local Pseudopotential Energy ::          -22.642239928684
                    Nonlocal Pseudopotential Energy ::            0.628720466100
                                        Confinement ::            0.784438639214

 Orbital energies  State     L     Occupation   Energy[a.u.]          Energy[eV]

                       1     0          2.000      -0.614669          -16.726007
 
                       1     1          5.000      -0.238124           -6.479695
 

 Total Electron Density at R=0:                                         0.000663
 Re-scaling the density matrix to get the right number of electrons
                  # Electrons              Trace(P)               Scaling factor
                          432               432.026                        1.000


 SCF WAVEFUNCTION OPTIMIZATION

  Step     Update method      Time    Convergence         Total energy    Change
  ------------------------------------------------------------------------------
  MEMORY_INFO| Memory for 3-center HFX integrals (compressed):       4338.40 MiB
  MEMORY_INFO| Compression factor:                                          2.82
     Occupancy of density matrix P:                           5.3E+05 / 100.000%
     Occupancy of 3c ints:                                    1.4E+09 /  77.379%
     Occupancy after contraction with K:                      1.5E+09 /  83.189%
     Occupancy after contraction with P:                      1.8E+09 / 100.000%
     Occupancy of Kohn-Sham matrix:                           5.3E+05 / 100.000%
     1 NoMix/Diag. 0.30E+00  111.1     1.39588055      -846.7702604949 -8.47E+02
     2 Broy./Diag. 0.30E+00   25.5     0.13200811      -856.0379562543 -9.27E+00
     3 Broy./Diag. 0.30E+00   24.7     0.42189961      -855.8584273781  1.80E-01
     4 Broy./Diag. 0.30E+00   25.0     0.03344000      -854.4190455414  1.44E+00
     5 Broy./Diag. 0.30E+00   24.0     0.06608609      -856.1756293186 -1.76E+00
     6 Broy./Diag. 0.30E+00   23.9     0.02583006      -856.8300145191 -6.54E-01
     7 Broy./Diag. 0.30E+00   23.6     0.01049587      -856.5332552733  2.97E-01
     8 Broy./Diag. 0.30E+00   23.3     0.00455964      -856.4202609338  1.13E-01
     9 Broy./Diag. 0.30E+00   23.0     0.00245946      -856.3825103325  3.78E-02
    10 Broy./Diag. 0.30E+00   22.7     0.00050516      -856.3557164720  2.68E-02
    11 Broy./Diag. 0.30E+00   22.0     0.00054830      -856.3650948253 -9.38E-03
    12 Broy./Diag. 0.30E+00   21.8     0.00015283      -856.3757840160 -1.07E-02
    13 Broy./Diag. 0.30E+00   20.9     0.00015402      -856.3722477476  3.54E-03
    14 Broy./Diag. 0.30E+00   21.1     0.00009196      -856.3711804130  1.07E-03
    15 Broy./Diag. 0.30E+00   20.2     0.00002506      -856.3724698651 -1.29E-03
    16 Broy./Diag. 0.30E+00   19.4     0.00001312      -856.3727105468 -2.41E-04
    17 Broy./Diag. 0.30E+00   18.4     0.00000520      -856.3727289590 -1.84E-05
    18 Broy./Diag. 0.30E+00   16.7     0.00000272      -856.3727561832 -2.72E-05
    19 Broy./Diag. 0.30E+00   16.0     0.00000158      -856.3727585555 -2.37E-06
    20 Broy./Diag. 0.30E+00   14.6     0.00000133      -856.3727795488 -2.10E-05
    21 Broy./Diag. 0.30E+00   13.6     0.00000058      -856.3727868749 -7.33E-06

  *** SCF run converged in    21 steps ***


  Electronic density on regular grids:       -432.0000000000        0.0000000000
  Core density on regular grids:              431.9999999991       -0.0000000009
  Total charge density on r-space grids:       -0.0000000008
  Total charge density g-space grids:          -0.0000000008

  Overlap energy of the core charge distribution:               0.00000000000000
  Self energy of the core charge distribution:              -1808.93285224999363
  Core Hamiltonian energy:                                    356.95418846431556
  Hartree energy:                                             744.34526275682413
  Exchange-correlation energy:                               -121.62110673004946
  Hartree-Fock Exchange energy:                               -27.11827911602964

  Total energy:                                              -856.37278687493301

 !-----------------------------------------------------------------------------!
                     Mulliken Population Analysis

 #  Atom  Element  Kind  Atomic population                           Net charge
       1     Cs       1          8.305679                              0.694321
       2     I        2          7.694319                             -0.694319
       3     Cs       1          8.305679                              0.694321
       4     I        2          7.694319                             -0.694319
       5     Cs       1          8.305679                              0.694321
       6     I        2          7.694320                             -0.694320
       7     Cs       1          8.305679                              0.694321
       8     I        2          7.694319                             -0.694319
       9     Cs       1          8.305679                              0.694321
      10     I        2          7.694319                             -0.694319
      11     Cs       1          8.305680                              0.694320
      12     I        2          7.694319                             -0.694319
      13     Cs       1          8.305680                              0.694320
      14     I        2          7.694320                             -0.694320
      15     Cs       1          8.305680                              0.694320
      16     I        2          7.694320                             -0.694320
      17     Cs       1          8.305681                              0.694319
      18     I        2          7.694320                             -0.694320
      19     Cs       1          8.305680                              0.694320
      20     I        2          7.694319                             -0.694319
      21     Cs       1          8.305680                              0.694320
      22     I        2          7.694319                             -0.694319
      23     Cs       1          8.305680                              0.694320
      24     I        2          7.694319                             -0.694319
      25     Cs       1          8.305680                              0.694320
      26     I        2          7.694319                             -0.694319
      27     Cs       1          8.305680                              0.694320
      28     I        2          7.694319                             -0.694319
      29     Cs       1          8.305681                              0.694319
      30     I        2          7.694319                             -0.694319
      31     Cs       1          8.305681                              0.694319
      32     I        2          7.694319                             -0.694319
      33     Cs       1          8.305681                              0.694319
      34     I        2          7.694319                             -0.694319
      35     Cs       1          8.305682                              0.694318
      36     I        2          7.694320                             -0.694320
      37     Cs       1          8.305680                              0.694320
      38     I        2          7.694320                             -0.694320
      39     Cs       1          8.305681                              0.694319
      40     I        2          7.694320                             -0.694320
      41     Cs       1          8.305681                              0.694319
      42     I        2          7.694320                             -0.694320
      43     Cs       1          8.305681                              0.694319
      44     I        2          7.694320                             -0.694320
      45     Cs       1          8.305681                              0.694319
      46     I        2          7.694320                             -0.694320
      47     Cs       1          8.305682                              0.694318
      48     I        2          7.694320                             -0.694320
      49     Cs       1          8.305682                              0.694318
      50     I        2          7.694320                             -0.694320
      51     Cs       1          8.305682                              0.694318
      52     I        2          7.694320                             -0.694320
      53     Cs       1          8.305683                              0.694317
      54     I        2          7.694320                             -0.694320
 # Total charge                            432.000000                 -0.000000

 !-----------------------------------------------------------------------------!

 !-----------------------------------------------------------------------------!
                           Hirshfeld Charges

  #Atom  Element  Kind  Ref Charge     Population                    Net charge
      1       Cs     1       9.000          9.852                        -0.852
      2       I      2       7.000          6.148                         0.852
      3       Cs     1       9.000          9.852                        -0.852
      4       I      2       7.000          6.148                         0.852
      5       Cs     1       9.000          9.852                        -0.852
      6       I      2       7.000          6.148                         0.852
      7       Cs     1       9.000          9.852                        -0.852
      8       I      2       7.000          6.148                         0.852
      9       Cs     1       9.000          9.852                        -0.852
     10       I      2       7.000          6.148                         0.852
     11       Cs     1       9.000          9.852                        -0.852
     12       I      2       7.000          6.148                         0.852
     13       Cs     1       9.000          9.852                        -0.852
     14       I      2       7.000          6.148                         0.852
     15       Cs     1       9.000          9.852                        -0.852
     16       I      2       7.000          6.148                         0.852
     17       Cs     1       9.000          9.852                        -0.852
     18       I      2       7.000          6.148                         0.852
     19       Cs     1       9.000          9.852                        -0.852
     20       I      2       7.000          6.148                         0.852
     21       Cs     1       9.000          9.852                        -0.852
     22       I      2       7.000          6.148                         0.852
     23       Cs     1       9.000          9.852                        -0.852
     24       I      2       7.000          6.148                         0.852
     25       Cs     1       9.000          9.852                        -0.852
     26       I      2       7.000          6.148                         0.852
     27       Cs     1       9.000          9.852                        -0.852
     28       I      2       7.000          6.148                         0.852
     29       Cs     1       9.000          9.852                        -0.852
     30       I      2       7.000          6.148                         0.852
     31       Cs     1       9.000          9.852                        -0.852
     32       I      2       7.000          6.148                         0.852
     33       Cs     1       9.000          9.852                        -0.852
     34       I      2       7.000          6.148                         0.852
     35       Cs     1       9.000          9.852                        -0.852
     36       I      2       7.000          6.148                         0.852
     37       Cs     1       9.000          9.852                        -0.852
     38       I      2       7.000          6.148                         0.852
     39       Cs     1       9.000          9.852                        -0.852
     40       I      2       7.000          6.148                         0.852
     41       Cs     1       9.000          9.852                        -0.852
     42       I      2       7.000          6.148                         0.852
     43       Cs     1       9.000          9.852                        -0.852
     44       I      2       7.000          6.148                         0.852
     45       Cs     1       9.000          9.852                        -0.852
     46       I      2       7.000          6.148                         0.852
     47       Cs     1       9.000          9.852                        -0.852
     48       I      2       7.000          6.148                         0.852
     49       Cs     1       9.000          9.852                        -0.852
     50       I      2       7.000          6.148                         0.852
     51       Cs     1       9.000          9.852                        -0.852
     52       I      2       7.000          6.148                         0.852
     53       Cs     1       9.000          9.852                        -0.852
     54       I      2       7.000          6.148                         0.852

  Total Charge                                                           -0.000
 !-----------------------------------------------------------------------------!

 ENERGY| Total FORCE_EVAL ( QS ) energy [a.u.]:             -856.372786874933013

 -------------------------------------------------------------------------------
 -                                                                             -
 -                                DBCSR STATISTICS                             -
 -                                                                             -
 -------------------------------------------------------------------------------
 COUNTER                                    TOTAL       BLAS       SMM       ACC
 flops    13 x    24 x    13             17740944       0.0%    100.0%      0.0%     
 flops    14 x    24 x    13             19105632       0.0%    100.0%      0.0%     
 flops    13 x    24 x    14             19105632       0.0%    100.0%      0.0%     
 flops    14 x    24 x    14             20575296       0.0%    100.0%      0.0%     
 flops    14 x    13 x    24            131852448       0.0%    100.0%      0.0%     
 flops    13 x    13 x    24            131852448       0.0%    100.0%      0.0%     
 flops    13 x    32 x    13            141927552       0.0%    100.0%      0.0%     
 flops    13 x    14 x    24            141994944       0.0%    100.0%      0.0%     
 flops    13 x    32 x    14            152845056       0.0%    100.0%      0.0%     
 flops    14 x    32 x    13            152845056       0.0%    100.0%      0.0%     
 flops    14 x    14 x    24            152917632       0.0%    100.0%      0.0%     
 flops    14 x    32 x    14            164602368       0.0%    100.0%      0.0%     
 flops    14 x    13 x    32           1054819584       0.0%    100.0%      0.0%     
 flops    13 x    13 x    32           1054819584       0.0%    100.0%      0.0%     
 flops    13 x    14 x    32           1135959552       0.0%    100.0%      0.0%     
 flops    14 x    14 x    32           1223341056       0.0%    100.0%      0.0%     
 flops inhomo. stacks                           0       0.0%      0.0%      0.0%
 flops total                         5.716305E+09       0.0%    100.0%      0.0%
 flops max/rank                    203.751936E+06       0.0%    100.0%      0.0%
 matmuls inhomo. stacks                         0       0.0%      0.0%      0.0%
 matmuls total                             508221       0.0%    100.0%      0.0%
 number of processed stacks                 41216       0.0%    100.0%      0.0%
 average stack size                                     0.0      12.3       0.0
 marketing flops                    10.560796E+09
 -------------------------------------------------------------------------------
 # multiplications                             46
 max memory usage/rank               3.119784E+09
 # max total images/rank                        2
 # max 3D layers                                1
 # MPI messages exchanged                   19136
 MPI messages size (bytes):
  total size                       642.295680E+06
  min size                           0.000000E+00
  max size                         145.152000E+03
  average size                      33.564781E+03
 MPI breakdown and total messages size (bytes):
             size <=      128                2308                        0
       128 < size <=     8192                   0                        0
      8192 < size <=    32768                7728                173840256
     32768 < size <=   131072                8680                410076408
    131072 < size <=  4194304                 420                 58378992
   4194304 < size <= 16777216                   0                        0
  16777216 < size                               0                        0
 -------------------------------------------------------------------------------

 *** WARNING in dbcsr_mm.F:301 :: Using a non-square number of MPI ranks ***
 *** might lead to poor performance. Used ranks: 32 Suggested: 36 64     ***

 -------------------------------------------------------------------------------
 -                                                                             -
 -                      DBCSR MESSAGE PASSING PERFORMANCE                      -
 -                                                                             -
 -------------------------------------------------------------------------------
 ROUTINE             CALLS      AVE VOLUME [Bytes]
 MP_Bcast               17                     12.
 MP_Allreduce          423                     10.
 MP_Alltoall          1948                  71992.
 MP_ISend             1472                  15600.
 MP_IRecv             1472                  13465.
 -------------------------------------------------------------------------------

 -------------------------------------------------------------------------------
 -                                                                             -
 -                                DBM STATISTICS                               -
 -                                                                             -
 -------------------------------------------------------------------------------
    M  x    N  x    K                                          COUNT     PERCENT
    ?  x    ?  x   ??                                     1498964341      14.96%
   ??  x   ??  x   ??                                      238517136       2.38%
    ?  x    ?  x    ?                                      103333153       1.03%
  ???  x    ?  x    ?                                     3090237023      30.85%
    ?  x    ?  x  ???                                     2668595038      26.64%
   ??  x    ?  x    ?                                     2417547800      24.13%
 -------------------------------------------------------------------------------

 -------------------------------------------------------------------------------
 -                                                                             -
 -                                GRID STATISTICS                              -
 -                                                                             -
 -------------------------------------------------------------------------------
 LP    KERNEL             BACKEND                              COUNT     PERCENT
 4     collocate ortho    CPU                                1960875      23.13%
 4     integrate ortho    CPU                                1873368      22.10%
 1     collocate ortho    CPU                                 864108      10.19%
 1     integrate ortho    CPU                                 864108      10.19%
 2     collocate ortho    CPU                                 626535       7.39%
 2     integrate ortho    CPU                                 626535       7.39%
 0     collocate ortho    CPU                                 616896       7.28%
 0     integrate ortho    CPU                                 616896       7.28%
 3     collocate ortho    CPU                                 210924       2.49%
 3     integrate ortho    CPU                                 210924       2.49%
 0     collocate general  CPU                                   3456       0.04%
 0     integrate general  CPU                                   1728       0.02%
 -------------------------------------------------------------------------------

 MEMORY| Estimated peak process memory [MiB]                                2971

 -------------------------------------------------------------------------------
 ----                             MULTIGRID INFO                            ----
 -------------------------------------------------------------------------------
 count for grid        1:           7344          cutoff [a.u.]          300.00
 count for grid        2:         256063          cutoff [a.u.]          100.00
 count for grid        3:         291536          cutoff [a.u.]           33.33
 count for grid        4:         174972          cutoff [a.u.]           11.11
 total gridlevel count  :         729915

 RI-HFX PERFORMANCE| DBT total number of flops:                         6.90E+13
 RI-HFX PERFORMANCE| DBT total execution time:                            421.11
 RI-HFX PERFORMANCE| DBT flop rate (Gflops / MPI rank):                     5.12

 -------------------------------------------------------------------------------
 -                                                                             -
 -                         MESSAGE PASSING PERFORMANCE                         -
 -                                                                             -
 -------------------------------------------------------------------------------

 ROUTINE             CALLS      AVE VOLUME [Bytes]
 MP_Group             2489
 MP_Bcast             1542                 759794.
 MP_Allreduce        15603                     62.
 MP_Sync              5099
 MP_Alltoall          1936                5128371.
 MP_SendRecv          2666                  75008.
 MP_ISendRecv         2604                  75008.
 MP_Wait             11448
 MP_comm_split        1257
 MP_ISend            37996                 409973.
 MP_IRecv            38022                 389375.
 -------------------------------------------------------------------------------


 -------------------------------------------------------------------------------
 -                                                                             -
 -                           R E F E R E N C E S                               -
 -                                                                             -
 -------------------------------------------------------------------------------
 
 CP2K version 2024.3, the CP2K developers group (2024).
 CP2K is freely available from https://www.cp2k.org/ .
 
 A. Bussy, O. Schuett, J. Hutter.
 J. Chem. Phys. 158, 164109 (2023).
 Sparse tensor based nuclear gradients for periodic Hartree-Fock and low-scaling 
 correlated wave function methods in the CP2K software package: A massively 
 parallel and GPU accelerated implementation..
 https://doi.org/10.1063/5.0144493

 T. D. Kuehne, M. Iannuzzi, M. Del Ben, V. V. Rybkin, P. Seewald, F. Stein, T. 
 Laino, R. Z. Khaliullin, O. Schuett, F. Schiffmann, D. Golze, J. Wilhelm, S. 
 Chulkov, M. H. Bani-Hashemian, V. Weber, U. Borstnik, M. Taillefumier, A. S. 
 Jakobovits, A. Lazzaro, H. Pabst, T. Mueller, R. Schade, M. Guidon, S. 
 Andermatt, N. Holmberg, G. K. Schenter, A. Hehn, A. Bussy, F. Belleflamme, G. 
 Tabacchi, A. Gloess, M. Lass, I. Bethune, C. J. Mundy, C. Plessl, M. Watkins, 
 J. VandeVondele, M. Krack, J. Hutter.
 J. Chem. Phys. 152, 194103 (2020).
 CP2K: An electronic structure and molecular dynamics software package - 
 Quickstep: Efficient and accurate electronic structure calculations.
 https://doi.org/10.1063/5.0007045

 G. L. Stoychev, A. A. Auer, F. Neese.
 J. Chem. Theory Comput. 13, 554-562 (2017).
 Automatic Generation of Auxiliary Basis Sets.
 https://doi.org/10.1021/acs.jctc.6b01041

 O. Schuett, P. Messmer, J. Hutter, J. VandeVondele.
 Electronic Structure Calculations on Graphics Processing Units, 173-190 (2016).
 GPU-Accelerated Sparse Matrix-Matrix Multiplication for Linear Scaling Density 
 Functional Theory.
 https://doi.org/10.1002/9781118670712.ch8

 A. Heinecke, G. Henry, M. Hutchinson, H. Pabst.
 Proceedings of Intl. Supercomputing Conference, 981-991 (2016).
 LIBXSMM: Accelerating Small Matrix Multiplications by Runtime Code Generation.
 https://doi.org/10.1109/SC.2016.83

 J. Hutter, M. Iannuzzi, F. Schiffmann, J. VandeVondele.
 WIREs Comput Mol Sci. 4, 15-25 (2014).
 CP2K: atomistic simulations of condensed matter systems.
 https://doi.org/10.1002/wcms.1159

 U. Borstnik, J. VandeVondele, V. Weber, J. Hutter.
 Parallel Comput. 40, 47-58 (2014).
 Sparse matrix multiplication: The distributed block-compressed sparse row 
 library.
 https://doi.org/10.1016/j.parco.2014.03.012

 P. Merlot, R. Izsak, A. Borgo, T. Kjaergaard, T. Helgaker, S. Reine.
 J. Chem. Phys. 141, 094104 (2014).
 Charge-constrained auxiliary-density-matrix methods for the Hartree-Fock 
 exchange contribution.
 https://doi.org/10.1063/1.4894267

 A. Marek, V. Blum, R. Johanni, V. Havu, B. Lang, T. Auckenthaler, A. Heinecke, 
 H. Bungartz, H. Lederer.
 J. Phys. Condens. Matter 26, 213201 (2014).
 The ELPA library: scalable parallel eigenvalue solutions for electronic 
 structure theory and computational science.
 https://doi.org/10.1088/0953-8984/26/21/213201

 M. Guidon, J. Hutter, J. VandeVondele.
 J. Chem. Theory Comput. 6, 2348-2364 (2010).
 Auxiliary Density Matrix Methods for Hartree-Fock Exchange Calculations.
 https://doi.org/10.1021/ct1002225

 M. Guidon, J. Hutter, J. VandeVondele.
 J. Chem. Theory Comput. 5, 3010-3021 (2009).
 Robust Periodic Hartree-Fock Exchange for Large-Scale Simulations Using 
 Gaussian Basis Sets.
 https://doi.org/10.1021/ct900494g

 M. Guidon, F. Schiffmann, J. Hutter, J. VandeVondele.
 J. Chem. Phys. 128, 214104 (2008).
 Ab initio molecular dynamics using hybrid density functionals.
 https://doi.org/10.1063/1.2931945

 J. VandeVondele, J. Hutter.
 J. Chem. Phys. 127, 114105 (2007).
 Gaussian basis sets for accurate calculations on molecular systems in gas and 
 condensed phases.
 https://doi.org/10.1063/1.2770708

 J. VandeVondele, M. Krack, F. Mohamed, M. Parrinello, T. Chassaing, J. Hutter.
 Comput. Phys. Commun. 167, 103-128 (2005).
 QUICKSTEP: Fast and accurate density functional calculations using a mixed 
 Gaussian and plane waves approach.
 https://doi.org/10.1016/j.cpc.2004.12.014

 M. Krack.
 Theor. Chem. Acc. 114, 145-152 (2005).
 Pseudopotentials for H to Kr optimized for gradient-corrected 
 exchange-correlation functionals.
 https://doi.org/10.1007/s00214-005-0655-y

 M. Frigo, S. G. Johnson.
 Proc. IEEE 93, 216-231 (2005).
 The design and implementation of FFTW3.
 https://doi.org/10.1109/JPROC.2004.840301

 J. Heyd, G. E. Scuseria.
 J. Chem. Phys. 120, 7274-7280 (2004).
 Assessment and validation of a screened Coulomb hybrid density functional.
 https://doi.org/10.1063/1.1668634

 C. Hartwigsen, S. Goedecker, J. Hutter.
 Phys. Rev. B 58, 3641-3662 (1998).
 Relativistic separable dual-space Gaussian pseudopotentials from H to Rn.
 https://doi.org/10.1103/PhysRevB.58.3641

 G. Lippert, J. Hutter, M. Parrinello.
 Mol. Phys. 92, 477-487 (1997).
 A hybrid Gaussian and plane wave density functional scheme.
 https://doi.org/10.1080/002689797170220

 S. Goedecker, M. Teter, J. Hutter.
 Phys. Rev. B 54, 1703-1710 (1996).
 Separable dual-space Gaussian pseudopotentials.
 https://doi.org/10.1103/PhysRevB.54.1703

 J. P. Perdew, K. Burke, M. Ernzerhof.
 Phys. Rev. Lett. 77, 3865-3868 (1996).
 Generalized gradient approximation made simple.
 https://doi.org/10.1103/PhysRevLett.77.3865


 -------------------------------------------------------------------------------
 -                                                                             -
 -                                T I M I N G                                  -
 -                                                                             -
 -------------------------------------------------------------------------------
 SUBROUTINE                       CALLS  ASD         SELF TIME        TOTAL TIME
                                MAXIMUM       AVERAGE  MAXIMUM  AVERAGE  MAXIMUM
 CP2K                                 1  1.0    0.029    0.053  533.395  533.395
 qs_energies                          1  2.0    0.000    0.000  532.806  532.808
 scf_env_do_scf                       1  3.0    0.000    0.000  531.991  531.991
 scf_env_do_scf_inner_loop           21  4.0    0.001    0.004  531.991  531.991
 qs_ks_update_qs_env                 21  5.0    0.000    0.000  526.171  526.172
 rebuild_ks_matrix                   21  6.0    0.000    0.000  526.169  526.170
 qs_ks_build_kohn_sham_matrix        21  7.0    0.002    0.002  526.169  526.170
 hfx_ks_matrix                       21  8.0    0.000    0.001  503.917  503.917
 hfx_ri_update_ks                    21  9.0    0.000    0.000  503.914  503.915
 hfx_ri_update_ks_Pmat               21 10.0   13.121   14.272  503.859  503.908
 dbt_total                         1481 11.6    0.011    0.012  422.340  422.351
 dbt_contract                       387 13.0    0.036    0.040  376.135  376.360
 dbt_tas_total                      645 14.1    5.806    6.274  322.086  322.087
 dbt_tas_multiply                   390 14.0    0.001    0.001  319.211  319.211
 dbt_tas_dbm                        390 16.0    0.001    0.001  286.641  286.647
 dbm_multiply                       390 18.0  247.564  285.177  247.564  285.177
 hfx_ri_update_ks_Pmat_Px3C         189 11.0    0.001    0.001  250.529  250.529
 dbt_tas_mm_3T                      190 17.0    0.000    0.001  175.750  197.664
 hfx_ri_update_ks_Pmat_KS           189 11.0    0.001    0.001  112.933  112.933
 mp_sync                           5099 13.4   58.635   86.131   58.635   86.131
 hfx_ri_pre_scf_Pmat                  1 11.0    0.000    0.000   82.448   82.449
 dbt_tas_mm_2                       190 17.0    0.001    0.001   76.874   76.880
 hfx_ri_pre_scf_Pmat_int              1 12.0    0.000    0.000   63.472   63.474
 hfx_ri_pre_scf_calc_tensors          1 13.0    0.002    0.002   62.366   62.390
 build_3c_integrals                   3 14.0   33.213   38.014   48.200   55.560
 dbt_crop                           774 14.0   21.289   23.715   43.396   48.752
 dbt_copy                           675 12.4    0.011    0.013   42.132   44.567
 dbt_tas_reserve_blocks_index      2300 15.9   17.394   20.517   38.032   43.323
 dbt_reserve_blocks_index          1651 14.9    0.298    0.357   33.147   37.520
 dbt_reserve_blocks_index_array    1604 14.0    0.011    0.024   31.977   36.337
 dbt_reshape                        292 13.8   21.207   22.648   32.327   33.697
 hfx_ri_update_ks_Pmat_copy_2       189 11.0    0.000    0.001   24.504   24.507
 dbm_reserve_blocks                2560 16.7   20.880   23.056   20.880   23.056
 convert_to_new_pgrid              1170 16.0    0.013    0.021   18.010   19.651
 dbm_copy                           776 17.0   17.809   19.435   17.809   19.435
 hfx_ri_pre_scf_Pmat_RIx3C            9 12.0    0.000    0.000   16.106   16.127
 qs_vxc_create                       42  8.0    0.001    0.001   12.044   12.044
 xc_vxc_pw_create                    42  9.0    0.115    0.132   12.043   12.043
 dbt_tas_mm_3N                       10 18.3    0.000    0.000   10.506   11.586
 -------------------------------------------------------------------------------

 The number of warnings for this run is : 2
 
 -------------------------------------------------------------------------------
  **** **** ******  **  PROGRAM ENDED AT                 2026-06-23 22:45:04.494
 ***** ** ***  *** **   PROGRAM RAN ON                                      cu04
 **    ****   ******    PROGRAM RAN BY                                     rudin
 ***** **    ** ** **   PROGRAM PROCESS ID                               3057182
  **** **  *******  **  PROGRAM STOPPED IN /home/rudin/code/kylin-pbc/art/exampl
                                           e/extern/CsI-HSE06-sc333-cp2k-ADMM
