CO                                      
   1.00000000000000     
    13.8000000000000007    0.0000000000000000    0.0000000000000000
     0.0000000000000000   13.0999999999999996    0.0000000000000000
     0.0000000000000000    0.0000000000000000   12.9000000000000004
   C    O 
     1     1
Direct
  0.0000000000000000  0.0000000000000000  0.9992225098514069
  0.0000000000000000  0.0000000000000000  0.0882348544896772
 
  0.00000000E+00  0.00000000E+00  0.00000000E+00
  0.00000000E+00  0.00000000E+00  0.00000000E+00
