    2    2    1    1
  0.1166031E+04  0.1380000E-08  0.1310000E-08  0.1290000E-08  0.5000000E-15
  1.000000000000000E-004
  CAR 
                                         
     10      1     16
 
  0.0000000E+00  0.0000000E+00  0.0000000E+00  0.1000000E+01
    1      -32.012265   1.000000
    2      -15.782806   1.000000
    3      -12.888071   1.000000
    4      -12.886537   1.000000
    5      -10.319668   1.000000
    6       -1.299250   0.000000
    7       -1.298840   0.000000
    8       -0.114532   0.000000
    9        0.642885   0.000000
   10        0.684571   0.000000
   11        0.744124   0.000000
   12        0.760302   0.000000
   13        0.798698   0.000000
   14        0.848053   0.000000
   15        1.454034   0.000000
   16        1.475910   0.000000
