       N       E                     dE             d eps       ncg     rms          ort
DAV:   1     0.835270401399E+02    0.83527E+02   -0.17790E+03    16   0.256E+02
DAV:   2     0.150062500856E+02   -0.68521E+02   -0.68401E+02    16   0.568E+01
DAV:   3     0.814725496464E+01   -0.68590E+01   -0.68590E+01    16   0.270E+01
DAV:   4     0.799161198913E+01   -0.15564E+00   -0.15564E+00    16   0.440E+00
DAV:   5     0.799154181257E+01   -0.70177E-04   -0.70176E-04    16   0.845E-02
SDA:   6    -0.178230089388E+02   -0.25815E+02   -0.70176E-04    16   0.240E+01 0.000E+00
CGA:   7    -0.181451628353E+02   -0.32215E+00   -0.32606E+00    16   0.216E+00-0.440E-02
CGA:   8    -0.181924819603E+02   -0.47319E-01   -0.47264E-01    16   0.107E+00 0.145E-02
CGA:   9    -0.182174897137E+02   -0.25008E-01   -0.24938E-01    16   0.343E-01 0.143E-02
CGA:  10    -0.182259552670E+02   -0.84656E-02   -0.84324E-02    16   0.110E-01 0.478E-03
CGA:  11    -0.182285907983E+02   -0.26355E-02   -0.26340E-02    16   0.391E-02 0.230E-04
CGA:  12    -0.182297256615E+02   -0.11349E-02   -0.11323E-02    16   0.154E-02 0.231E-04
CGA:  13    -0.182301605594E+02   -0.43490E-03   -0.43441E-03    16   0.557E-03 0.414E-05
CGA:  14    -0.182302891698E+02   -0.12861E-03   -0.12858E-03    16   0.125E-03 0.155E-05
CGA:  15    -0.182303216123E+02   -0.32443E-04   -0.32429E-04    16   0.312E-04 0.274E-06
CGA:  16    -0.182303299063E+02   -0.82940E-05   -0.82787E-05    16   0.789E-05 0.306E-06
   1 F= -.18230330E+02 E0= -.18230330E+02  d E =-.381357E-10
