<?xml version="1.0" encoding="ISO-8859-1"?>
<modeling>
 <generator>
  <i name="program" type="string">vasp </i>
  <i name="version" type="string">5.4.4.18Apr17-6-g9f103f2a35  </i>
  <i name="subversion" type="string">(build Nov 21 2024 06:08:55) complex            parallel </i>
  <i name="platform" type="string">LinuxIFC </i>
  <i name="date" type="string">2026 01 30 </i>
  <i name="time" type="string">04:41:30 </i>
 </generator>
 <incar>
  <i type="string" name="PREC">normal</i>
  <i type="string" name="ALGO"> All</i>
  <i type="int" name="NELM">   200</i>
  <i type="int" name="NELMIN">     8</i>
  <i name="EDIFF">      0.00001000</i>
  <i type="int" name="NSW">     0</i>
  <i name="ENCUT">    400.00000000</i>
  <i type="int" name="ISMEAR">     0</i>
  <i name="SIGMA">      0.10000000</i>
  <v type="int" name="KPOINT_BSE">    -1     0     0     0</v>
  <i type="int" name="NELM">   200</i>
  <i type="logical" name="LHFCALC"> T  </i>
  <i name="HFSCREEN">      0.20000000</i>
  <i name="AEXX">      0.25000000</i>
  <i type="string" name="PRECFOCK">fast</i>
 </incar>
 <structure name="primitive_cell" >
  <crystal>
   <varray name="basis" >
    <v>      13.80000000       0.00000000       0.00000000 </v>
    <v>       0.00000000      13.10000000       0.00000000 </v>
    <v>       0.00000000       0.00000000      12.90000000 </v>
   </varray>
   <i name="volume">   2332.06200000 </i>
   <varray name="rec_basis" >
    <v>       0.07246377       0.00000000       0.00000000 </v>
    <v>       0.00000000       0.07633588       0.00000000 </v>
    <v>       0.00000000       0.00000000       0.07751938 </v>
   </varray>
  </crystal>
  <varray name="positions" >
   <v>       0.00000000       0.00000000      -0.00077749 </v>
   <v>       0.00000000       0.00000000       0.08823485 </v>
  </varray>
 </structure>
 <varray name="primitive_index" >
  <v type="int" >        1 </v>
  <v type="int" >        2 </v>
 </varray>
 <kpoints>
  <generation param="Gamma">
   <v type="int" name="divisions">       1        1        1 </v>
   <v name="usershift">      0.00000000       0.00000000       0.00000000 </v>
   <v name="genvec1">      1.00000000       0.00000000       0.00000000 </v>
   <v name="genvec2">      0.00000000       1.00000000       0.00000000 </v>
   <v name="genvec3">      0.00000000       0.00000000       1.00000000 </v>
   <v name="shift">      0.00000000       0.00000000       0.00000000 </v>
  </generation>
  <varray name="kpointlist" >
   <v>       0.00000000       0.00000000       0.00000000 </v>
  </varray>
  <varray name="weights" >
   <v>       1.00000000 </v>
  </varray>
 </kpoints>
 <parameters>
  <separator name="general" >
   <i type="string" name="SYSTEM"></i>
   <i type="logical" name="LCOMPAT"> F  </i>
  </separator>
  <separator name="electronic" >
   <i type="string" name="PREC">normal</i>
   <i name="ENMAX">    400.00000000</i>
   <i name="ENAUG">    644.87300000</i>
   <i name="EDIFF">      0.00001000</i>
   <i type="int" name="IALGO">    58</i>
   <i type="int" name="IWAVPR">    10</i>
   <i type="int" name="NBANDS">    16</i>
   <i name="NELECT">     10.00000000</i>
   <i type="int" name="TURBO">     0</i>
   <i type="int" name="IRESTART">     0</i>
   <i type="int" name="NREBOOT">     0</i>
   <i type="int" name="NMIN">     0</i>
   <i name="EREF">      0.00000000</i>
   <separator name="electronic smearing" >
    <i type="int" name="ISMEAR">     0</i>
    <i name="SIGMA">      0.10000000</i>
    <i name="KSPACING">      0.50000000</i>
    <i type="logical" name="KGAMMA"> T  </i>
   </separator>
   <separator name="electronic projectors" >
    <i type="logical" name="LREAL"> F  </i>
    <v name="ROPT">      0.00000000      0.00000000</v>
    <i type="int" name="LMAXPAW">  -100</i>
    <i type="int" name="LMAXMIX">     2</i>
    <i type="logical" name="NLSPLINE"> F  </i>
   </separator>
   <separator name="electronic startup" >
    <i type="int" name="ISTART">     0</i>
    <i type="int" name="ICHARG">     2</i>
    <i type="int" name="INIWAV">     1</i>
   </separator>
   <separator name="electronic spin" >
    <i type="int" name="ISPIN">     1</i>
    <i type="logical" name="LNONCOLLINEAR"> F  </i>
    <v name="MAGMOM">      1.00000000      1.00000000</v>
    <i name="NUPDOWN">     -1.00000000</i>
    <i type="logical" name="LSORBIT"> F  </i>
    <v name="SAXIS">      0.00000000      0.00000000      1.00000000</v>
    <i type="logical" name="LSPIRAL"> F  </i>
    <v name="QSPIRAL">      0.00000000      0.00000000      0.00000000</v>
    <i type="logical" name="LZEROZ"> F  </i>
   </separator>
   <separator name="electronic exchange-correlation" >
    <i type="logical" name="LASPH"> F  </i>
    <i type="logical" name="LMETAGGA"> F  </i>
   </separator>
   <separator name="electronic convergence" >
    <i type="int" name="NELM">   200</i>
    <i type="int" name="NELMDL">    -5</i>
    <i type="int" name="NELMIN">     8</i>
    <i name="ENINI">    400.00000000</i>
    <separator name="electronic convergence detail" >
     <i type="logical" name="LDIAG"> T  </i>
     <i type="logical" name="LSUBROT"> F  </i>
     <i name="WEIMIN">      0.00000000</i>
     <i name="EBREAK">      0.00000016</i>
     <i name="DEPER">      0.30000000</i>
     <i type="int" name="NRMM">     4</i>
     <i name="TIME">      0.40000000</i>
    </separator>
   </separator>
   <separator name="electronic mixer" >
    <i name="AMIX">      0.40000000</i>
    <i name="BMIX">      1.00000000</i>
    <i name="AMIN">      0.10000000</i>
    <i name="AMIX_MAG">      1.60000000</i>
    <i name="BMIX_MAG">      1.00000000</i>
    <separator name="electronic mixer details" >
     <i type="int" name="IMIX">     4</i>
     <i type="logical" name="MIXFIRST"> F  </i>
     <i type="int" name="MAXMIX">   -45</i>
     <i name="WC">    100.00000000</i>
     <i type="int" name="INIMIX">     1</i>
     <i type="int" name="MIXPRE">     1</i>
     <i type="int" name="MREMOVE">     5</i>
    </separator>
   </separator>
   <separator name="electronic dipolcorrection" >
    <i type="logical" name="LDIPOL"> F  </i>
    <i type="logical" name="LMONO"> F  </i>
    <i type="int" name="IDIPOL">     0</i>
    <i name="EPSILON">      1.00000000</i>
    <v name="DIPOL">   -100.00000000   -100.00000000   -100.00000000</v>
    <i name="EFIELD">      0.00000000</i>
   </separator>
  </separator>
  <separator name="grids" >
   <i type="int" name="NGX">    70</i>
   <i type="int" name="NGY">    64</i>
   <i type="int" name="NGZ">    64</i>
   <i type="int" name="NGXF">   140</i>
   <i type="int" name="NGYF">   128</i>
   <i type="int" name="NGZF">   128</i>
   <i type="logical" name="ADDGRID"> F  </i>
  </separator>
  <separator name="ionic" >
   <i type="int" name="NSW">     0</i>
   <i type="int" name="IBRION">    -1</i>
   <i type="int" name="MDALGO">     0</i>
   <i type="int" name="ISIF">     0</i>
   <i name="PSTRESS">      0.00000000</i>
   <i name="EDIFFG">      0.00010000</i>
   <i type="int" name="NFREE">     0</i>
   <i name="POTIM">      0.50000000</i>
   <i name="SMASS">     -3.00000000</i>
   <i name="SCALEE">      1.00000000</i>
  </separator>
  <separator name="ionic md" >
   <i name="TEBEG">      0.00010000</i>
   <i name="TEEND">      0.00010000</i>
   <i type="int" name="NBLOCK">     1</i>
   <i type="int" name="KBLOCK">     1</i>
   <i type="int" name="NPACO">   256</i>
   <i name="APACO">     16.00000000</i>
  </separator>
  <separator name="symmetry" >
   <i type="int" name="ISYM">     3</i>
   <i name="SYMPREC">      0.00001000</i>
  </separator>
  <separator name="dos" >
   <i type="int" name="LORBIT">     0</i>
   <v name="RWIGS">     -1.00000000     -1.00000000</v>
   <i type="int" name="NEDOS">   301</i>
   <i name="EMIN">     10.00000000</i>
   <i name="EMAX">    -10.00000000</i>
   <i name="EFERMI">      0.00000000</i>
  </separator>
  <separator name="writing" >
   <i type="int" name="NWRITE">     2</i>
   <i type="logical" name="LWAVE"> T  </i>
   <i type="logical" name="LDOWNSAMPLE"> F  </i>
   <i type="logical" name="LCHARG"> T  </i>
   <i type="logical" name="LPARD"> F  </i>
   <i type="logical" name="LVTOT"> F  </i>
   <i type="logical" name="LVHAR"> F  </i>
   <i type="logical" name="LELF"> F  </i>
   <i type="logical" name="LOPTICS"> F  </i>
   <v name="STM">      0.00000000      0.00000000      0.00000000      0.00000000      0.00000000      0.00000000      0.00000000</v>
  </separator>
  <separator name="performance" >
   <i type="int" name="NPAR">    16</i>
   <i type="int" name="NSIM">     4</i>
   <i type="int" name="NBLK">    -1</i>
   <i type="logical" name="LPLANE"> T  </i>
   <i type="logical" name="LSCALAPACK"> T  </i>
   <i type="logical" name="LSCAAWARE"> F  </i>
   <i type="logical" name="LSCALU"> F  </i>
   <i type="logical" name="LASYNC"> F  </i>
   <i type="logical" name="LORBITALREAL"> F  </i>
  </separator>
  <separator name="miscellaneous" >
   <i type="int" name="IDIOT">     3</i>
   <i type="int" name="ISPECIAL">     0</i>
   <i type="logical" name="LMUSIC"> F  </i>
   <v name="POMASS">     12.01100000     16.00000000</v>
   <v name="DARWINR">      0.00000000      0.00000000</v>
   <v name="DARWINV">      1.00000000      1.00000000</v>
   <i type="logical" name="LCORR"> T  </i>
  </separator>
  <i type="logical" name="GGA_COMPAT"> T  </i>
  <i type="logical" name="LBERRY"> F  </i>
  <i type="int" name="ICORELEVEL">     0</i>
  <i type="logical" name="LDAU"> F  </i>
  <i type="int" name="I_CONSTRAINED_M">     0</i>
  <separator name="electronic exchange-correlation" >
   <i type="string" name="GGA">--</i>
   <i type="int" name="VOSKOWN">     0</i>
   <i type="logical" name="LHFCALC"> T  </i>
   <i type="string" name="PRECFOCK">fast</i>
   <i type="logical" name="LSYMGRAD"> F  </i>
   <i type="logical" name="LHFONE"> F  </i>
   <i type="logical" name="LRHFCALC"> F  </i>
   <i type="logical" name="LTHOMAS"> F  </i>
   <i type="logical" name="LMODELHF"> F  </i>
   <i name="ENCUT4O">     -1.00000000</i>
   <i type="int" name="EXXOEP">     0</i>
   <i type="int" name="FOURORBIT">     0</i>
   <i name="AEXX">      0.25000000</i>
   <i name="HFALPHA">     -1.00000000</i>
   <i name="MCALPHA">      0.00000000</i>
   <i name="ALDAX">      0.75000000</i>
   <i name="AGGAX">      0.75000000</i>
   <i name="ALDAC">      1.00000000</i>
   <i name="AGGAC">      1.00000000</i>
   <i type="int" name="NKREDX">     1</i>
   <i type="int" name="NKREDY">     1</i>
   <i type="int" name="NKREDZ">     1</i>
   <i type="logical" name="SHIFTRED"> F  </i>
   <i type="logical" name="ODDONLY"> F  </i>
   <i type="logical" name="EVENONLY"> F  </i>
   <i type="int" name="LMAXFOCK">     4</i>
   <i type="int" name="NMAXFOCKAE">     1</i>
   <i type="logical" name="LFOCKAEDFT"> F  </i>
   <i name="HFSCREEN">      0.20000000</i>
   <i name="HFSCREENC">      0.20000000</i>
   <i type="int" name="NBANDSGWLOW">     1</i>
  </separator>
  <separator name="vdW DFT" >
   <i type="logical" name="LUSE_VDW"> F  </i>
   <i name="Zab_VDW">     -0.84910000</i>
   <i name="PARAM1">      0.12340000</i>
   <i name="PARAM2">      1.00000000</i>
   <i name="PARAM3">      0.00000000</i>
  </separator>
  <separator name="model GW" >
   <i type="int" name="MODEL_GW">     0</i>
   <i name="MODEL_EPS0">    699.61860000</i>
   <i name="MODEL_ALPHA">      1.00000000</i>
  </separator>
  <separator name="linear response parameters" >
   <i type="logical" name="LEPSILON"> F  </i>
   <i type="logical" name="LRPA"> F  </i>
   <i type="logical" name="LNABLA"> F  </i>
   <i type="logical" name="LVEL"> F  </i>
   <i type="int" name="KINTER">     0</i>
   <i name="CSHIFT">      0.10000000</i>
   <i name="OMEGAMAX">     -1.00000000</i>
   <i name="DEG_THRESHOLD">      0.00200000</i>
   <i name="RTIME">     -0.10000000</i>
   <i name="WPLASMAI">      0.00000000</i>
   <v name="DFIELD">      0.00000000      0.00000000      0.00000000</v>
   <v name="WPLASMA">      0.00000000      0.00000000      0.00000000      0.00000000      0.00000000      0.00000000      0.00000000      0.00000000      0.00000000</v>
  </separator>
  <separator name="orbital magnetization" >
   <i type="logical" name="NUCIND"> F  </i>
   <v name="MAGPOS">      0.00000000      0.00000000      0.00000000</v>
   <i type="logical" name="LNICSALL"> T  </i>
   <i type="logical" name="ORBITALMAG"> F  </i>
   <i type="logical" name="LMAGBLOCH"> F  </i>
   <i type="logical" name="LCHIMAG"> F  </i>
   <i type="logical" name="LGAUGE"> T  </i>
   <i type="int" name="MAGATOM">     0</i>
   <v name="MAGDIPOL">      0.00000000      0.00000000      0.00000000</v>
   <v name="AVECCONST">      0.00000000      0.00000000      0.00000000</v>
  </separator>
  <separator name="response functions" >
   <i type="logical" name="LADDER"> F  </i>
   <i type="logical" name="LRPAFORCE"> F  </i>
   <i type="logical" name="LFXC"> F  </i>
   <i type="logical" name="LHARTREE"> T  </i>
   <i type="int" name="IBSE">     0</i>
   <v type="int" name="KPOINT">    -1     0     0     0</v>
   <i type="logical" name="LTCTE"> F  </i>
   <i type="logical" name="LTETE"> F  </i>
   <i type="logical" name="LTRIPLET"> F  </i>
   <i type="logical" name="LFXCEPS"> F  </i>
   <i type="logical" name="LFXHEG"> F  </i>
   <i type="int" name="NATURALO">     2</i>
   <i type="logical" name="L2ORDER"> F  </i>
   <i type="logical" name="LMP2LT"> F  </i>
   <i type="logical" name="LUSEW"> F  </i>
   <i name="ENCUTGW">     -2.00000000</i>
   <i name="ENCUTGWSOFT">     -2.00000000</i>
   <i name="ENCUTLF">     -1.00000000</i>
   <i type="int" name="LMAXMP2">    -1</i>
   <i name="SCISSOR">      0.00000000</i>
   <i type="int" name="NOMEGA">     0</i>
   <i type="int" name="NOMEGAR">     0</i>
   <i type="int" name="NBANDSGW">    -1</i>
   <i type="int" name="NBANDSO">    -1</i>
   <i type="int" name="NBANDSV">    -1</i>
   <i type="int" name="NELM">   200</i>
   <i type="int" name="NELMHF">     1</i>
   <i type="int" name="DIM">     3</i>
   <i type="int" name="ANTIRES">     0</i>
   <i name="OMEGAMAX">    -30.00000000</i>
   <i name="OMEGAMIN">    -30.00000000</i>
   <i name="OMEGATL">   -200.00000000</i>
   <i type="int" name="OMEGAGRID">   140</i>
   <i name="CSHIFT">     -0.10000000</i>
   <i type="logical" name="SELFENERGY"> F  </i>
   <i type="logical" name="LSPECTRAL"> F  </i>
   <i type="logical" name="LSPECTRALGW"> F  </i>
   <i type="logical" name="LSINGLES"> F  </i>
   <i type="logical" name="LFERMIGW"> F  </i>
   <i type="logical" name="ODDONLYGW"> F  </i>
   <i type="logical" name="EVENONLYGW"> F  </i>
   <i type="int" name="NKREDLFX">     1</i>
   <i type="int" name="NKREDLFY">     1</i>
   <i type="int" name="NKREDLFZ">     1</i>
   <i type="int" name="MAXMEM">  2800</i>
   <i type="int" name="TELESCOPE">     0</i>
   <i type="int" name="TAUPAR">     1</i>
   <i type="int" name="OMEGAPAR">    -1</i>
   <i name="LAMBDA">      1.00000000</i>
  </separator>
  <separator name="External order field" >
   <i name="OFIELD_KAPPA">      0.00000000</i>
   <v name="OFIELD_K">      0.00000000      0.00000000      0.00000000</v>
   <i name="OFIELD_Q6_NEAR">      0.00000000</i>
   <i name="OFIELD_Q6_FAR">      0.00000000</i>
   <i name="OFIELD_A">      0.00000000</i>
  </separator>
 </parameters>
 <atominfo>
  <atoms>       2 </atoms>
  <types>       2 </types>
  <array name="atoms" >
   <dimension dim="1">ion</dimension>
   <field type="string">element</field>
   <field type="int">atomtype</field>
   <set>
    <rc><c>C </c><c>   1</c></rc>
    <rc><c>O </c><c>   2</c></rc>
   </set>
  </array>
  <array name="atomtypes" >
   <dimension dim="1">type</dimension>
   <field type="int">atomspertype</field>
   <field type="string">element</field>
   <field>mass</field>
   <field>valence</field>
   <field type="string">pseudopotential</field>
   <set>
    <rc><c>   1</c><c>C </c><c>     12.01100000</c><c>      4.00000000</c><c>  PAW_PBE C 08Apr2002                   </c></rc>
    <rc><c>   1</c><c>O </c><c>     16.00000000</c><c>      6.00000000</c><c>  PAW_PBE O 08Apr2002                   </c></rc>
   </set>
  </array>
 </atominfo>
 <structure name="initialpos" >
  <crystal>
   <varray name="basis" >
    <v>      13.80000000       0.00000000       0.00000000 </v>
    <v>       0.00000000      13.10000000       0.00000000 </v>
    <v>       0.00000000       0.00000000      12.90000000 </v>
   </varray>
   <i name="volume">   2332.06200000 </i>
   <varray name="rec_basis" >
    <v>       0.07246377       0.00000000       0.00000000 </v>
    <v>       0.00000000       0.07633588       0.00000000 </v>
    <v>       0.00000000       0.00000000       0.07751938 </v>
   </varray>
  </crystal>
  <varray name="positions" >
   <v>       0.00000000       0.00000000       0.99922251 </v>
   <v>       0.00000000       0.00000000       0.08823485 </v>
  </varray>
 </structure>
 <calculation>
  <scstep>
   <time name="total">    0.19    0.19</time>
   <energy>
    <i name="alphaZ">      0.18736961 </i>
    <i name="ewald">    147.58838173 </i>
    <i name="hartreedc">   -608.43188975 </i>
    <i name="XCdc">     30.08652856 </i>
    <i name="pawpsdc">    463.56654224 </i>
    <i name="pawaedc">   -464.88076580 </i>
    <i name="eentropy">     -0.00644608 </i>
    <i name="bandstr">    -59.31372722 </i>
    <i name="atom">    574.73104684 </i>
    <i name="e_fr_energy">     83.52704014 </i>
    <i name="e_wo_entrp">     83.53348622 </i>
    <i name="e_0_energy">     83.53026318 </i>
   </energy>
  </scstep>
  <scstep>
   <time name="total">    0.04    0.04</time>
   <energy>
    <i name="e_fr_energy">     15.00625009 </i>
    <i name="e_wo_entrp">     15.00625009 </i>
    <i name="e_0_energy">     15.00625009 </i>
   </energy>
  </scstep>
  <scstep>
   <time name="total">    0.03    0.03</time>
   <energy>
    <i name="e_fr_energy">      8.14725496 </i>
    <i name="e_wo_entrp">      8.14725496 </i>
    <i name="e_0_energy">      8.14725496 </i>
   </energy>
  </scstep>
  <scstep>
   <time name="total">    0.04    0.04</time>
   <energy>
    <i name="e_fr_energy">      7.99161199 </i>
    <i name="e_wo_entrp">      7.99161199 </i>
    <i name="e_0_energy">      7.99161199 </i>
   </energy>
  </scstep>
  <scstep>
   <time name="total">    0.03    0.03</time>
   <energy>
    <i name="e_fr_energy">      7.99154181 </i>
    <i name="e_wo_entrp">      7.99154181 </i>
    <i name="e_0_energy">      7.99154181 </i>
   </energy>
  </scstep>
  <scstep>
   <time name="total">    0.53    0.53</time>
   <energy>
    <i name="e_fr_energy">    -17.82300894 </i>
    <i name="e_wo_entrp">    -17.82300894 </i>
    <i name="e_0_energy">    -17.82300894 </i>
   </energy>
  </scstep>
  <scstep>
   <time name="total">    0.53    0.53</time>
   <energy>
    <i name="e_fr_energy">    -18.14516284 </i>
    <i name="e_wo_entrp">    -18.14516284 </i>
    <i name="e_0_energy">    -18.14516284 </i>
   </energy>
  </scstep>
  <scstep>
   <time name="total">    0.53    0.53</time>
   <energy>
    <i name="e_fr_energy">    -18.19248196 </i>
    <i name="e_wo_entrp">    -18.19248196 </i>
    <i name="e_0_energy">    -18.19248196 </i>
   </energy>
  </scstep>
  <scstep>
   <time name="total">    0.52    0.53</time>
   <energy>
    <i name="e_fr_energy">    -18.21748971 </i>
    <i name="e_wo_entrp">    -18.21748971 </i>
    <i name="e_0_energy">    -18.21748971 </i>
   </energy>
  </scstep>
  <scstep>
   <time name="total">    0.52    0.52</time>
   <energy>
    <i name="e_fr_energy">    -18.22595527 </i>
    <i name="e_wo_entrp">    -18.22595527 </i>
    <i name="e_0_energy">    -18.22595527 </i>
   </energy>
  </scstep>
  <scstep>
   <time name="total">    0.52    0.52</time>
   <energy>
    <i name="e_fr_energy">    -18.22859080 </i>
    <i name="e_wo_entrp">    -18.22859080 </i>
    <i name="e_0_energy">    -18.22859080 </i>
   </energy>
  </scstep>
  <scstep>
   <time name="total">    0.52    0.52</time>
   <energy>
    <i name="e_fr_energy">    -18.22972566 </i>
    <i name="e_wo_entrp">    -18.22972566 </i>
    <i name="e_0_energy">    -18.22972566 </i>
   </energy>
  </scstep>
  <scstep>
   <time name="total">    0.52    0.52</time>
   <energy>
    <i name="e_fr_energy">    -18.23016056 </i>
    <i name="e_wo_entrp">    -18.23016056 </i>
    <i name="e_0_energy">    -18.23016056 </i>
   </energy>
  </scstep>
  <scstep>
   <time name="total">    0.52    0.52</time>
   <energy>
    <i name="e_fr_energy">    -18.23028917 </i>
    <i name="e_wo_entrp">    -18.23028917 </i>
    <i name="e_0_energy">    -18.23028917 </i>
   </energy>
  </scstep>
  <scstep>
   <time name="total">    0.52    0.52</time>
   <energy>
    <i name="e_fr_energy">    -18.23032161 </i>
    <i name="e_wo_entrp">    -18.23032161 </i>
    <i name="e_0_energy">    -18.23032161 </i>
   </energy>
  </scstep>
  <scstep>
   <time name="total">    0.59    0.59</time>
   <energy>
    <i name="alphaZ">      0.18736961 </i>
    <i name="ewald">    147.58838173 </i>
    <i name="hartreedc">   -629.67956800 </i>
    <i name="XCdc">     31.01288395 </i>
    <i name="pawpsdc">    894.49347355 </i>
    <i name="pawaedc">   -895.77253655 </i>
    <i name="eentropy">     -0.00000000 </i>
    <i name="bandstr">   -167.77437637 </i>
    <i name="atom">    574.73104684 </i>
    <i name="e_fr_energy">    -18.23032991 </i>
    <i name="e_wo_entrp">    -18.23032991 </i>
    <i name="e_0_energy">    -18.23032991 </i>
   </energy>
  </scstep>
  <structure>
   <crystal>
    <varray name="basis" >
     <v>      13.80000000       0.00000000       0.00000000 </v>
     <v>       0.00000000      13.10000000       0.00000000 </v>
     <v>       0.00000000       0.00000000      12.90000000 </v>
    </varray>
    <i name="volume">   2332.06200000 </i>
    <varray name="rec_basis" >
     <v>       0.07246377       0.00000000       0.00000000 </v>
     <v>       0.00000000       0.07633588       0.00000000 </v>
     <v>       0.00000000       0.00000000       0.07751938 </v>
    </varray>
   </crystal>
   <varray name="positions" >
    <v>       0.00000000       0.00000000       0.99922251 </v>
    <v>       0.00000000       0.00000000       0.08823485 </v>
   </varray>
  </structure>
  <varray name="forces" >
   <v>       0.00000000      -0.00000000       1.95058908 </v>
   <v>      -0.00000000       0.00000000      -1.95058908 </v>
  </varray>
  <energy>
   <i name="e_fr_energy">    -18.23032991 </i>
   <i name="e_wo_entrp">    -18.23032991 </i>
   <i name="e_0_energy">     -0.00000000 </i>
  </energy>
  <time name="totalsc">    7.36    7.46</time>
  <eigenvalues>
   <array>
    <dimension dim="1">band</dimension>
    <dimension dim="2">kpoint</dimension>
    <dimension dim="3">spin</dimension>
    <field>eigene</field>
    <field>occ</field>
    <set>
     <set comment="spin 1">
      <set comment="kpoint 1">
       <r>  -32.0123    1.0000 </r>
       <r>  -15.7828    1.0000 </r>
       <r>  -12.8881    1.0000 </r>
       <r>  -12.8865    1.0000 </r>
       <r>  -10.3197    1.0000 </r>
       <r>   -1.2993    0.0000 </r>
       <r>   -1.2988    0.0000 </r>
       <r>   -0.1145    0.0000 </r>
       <r>    0.6429    0.0000 </r>
       <r>    0.6846    0.0000 </r>
       <r>    0.7441    0.0000 </r>
       <r>    0.7603    0.0000 </r>
       <r>    0.7987    0.0000 </r>
       <r>    0.8481    0.0000 </r>
       <r>    1.4540    0.0000 </r>
       <r>    1.4759    0.0000 </r>
      </set>
     </set>
    </set>
   </array>
  </eigenvalues>
  <separator name="orbital magnetization" >
   <v name="MAGDIPOLOUT">      0.00000000      0.00000000      0.00000000</v>
  </separator>
  <dos>
   <i name="efermi">     -9.85774389 </i>
   <total>
    <array>
     <dimension dim="1">gridpoints</dimension>
     <dimension dim="2">spin</dimension>
     <field>energy</field>
     <field>total</field>
     <field>integrated</field>
     <set>
      <set comment="spin 1">
       <r>   -33.6867     0.0000     0.0000 </r>
       <r>   -33.5639     0.0000     0.0000 </r>
       <r>   -33.4411     0.0000     0.0000 </r>
       <r>   -33.3183     0.0000     0.0000 </r>
       <r>   -33.1955     0.0000     0.0000 </r>
       <r>   -33.0727     0.0000     0.0000 </r>
       <r>   -32.9499     0.0000     0.0000 </r>
       <r>   -32.8271     0.0000     0.0000 </r>
       <r>   -32.7044     0.0000     0.0000 </r>
       <r>   -32.5816     0.0000     0.0000 </r>
       <r>   -32.4588     0.0000     0.0000 </r>
       <r>   -32.3360     0.0000     0.0000 </r>
       <r>   -32.2132     0.0365     0.0045 </r>
       <r>   -32.0904     2.1553     0.2691 </r>
       <r>   -31.9676     9.7982     1.4723 </r>
       <r>   -31.8448     4.1522     1.9821 </r>
       <r>   -31.7220     0.1453     2.0000 </r>
       <r>   -31.5992     0.0003     2.0000 </r>
       <r>   -31.4765     0.0000     2.0000 </r>
       <r>   -31.3537     0.0000     2.0000 </r>
       <r>   -31.2309     0.0000     2.0000 </r>
       <r>   -31.1081     0.0000     2.0000 </r>
       <r>   -30.9853     0.0000     2.0000 </r>
       <r>   -30.8625     0.0000     2.0000 </r>
       <r>   -30.7397     0.0000     2.0000 </r>
       <r>   -30.6169     0.0000     2.0000 </r>
       <r>   -30.4941     0.0000     2.0000 </r>
       <r>   -30.3713     0.0000     2.0000 </r>
       <r>   -30.2486     0.0000     2.0000 </r>
       <r>   -30.1258     0.0000     2.0000 </r>
       <r>   -30.0030     0.0000     2.0000 </r>
       <r>   -29.8802     0.0000     2.0000 </r>
       <r>   -29.7574     0.0000     2.0000 </r>
       <r>   -29.6346     0.0000     2.0000 </r>
       <r>   -29.5118     0.0000     2.0000 </r>
       <r>   -29.3890     0.0000     2.0000 </r>
       <r>   -29.2662     0.0000     2.0000 </r>
       <r>   -29.1434     0.0000     2.0000 </r>
       <r>   -29.0207     0.0000     2.0000 </r>
       <r>   -28.8979     0.0000     2.0000 </r>
       <r>   -28.7751     0.0000     2.0000 </r>
       <r>   -28.6523     0.0000     2.0000 </r>
       <r>   -28.5295     0.0000     2.0000 </r>
       <r>   -28.4067     0.0000     2.0000 </r>
       <r>   -28.2839     0.0000     2.0000 </r>
       <r>   -28.1611     0.0000     2.0000 </r>
       <r>   -28.0383     0.0000     2.0000 </r>
       <r>   -27.9155     0.0000     2.0000 </r>
       <r>   -27.7928     0.0000     2.0000 </r>
       <r>   -27.6700     0.0000     2.0000 </r>
       <r>   -27.5472     0.0000     2.0000 </r>
       <r>   -27.4244     0.0000     2.0000 </r>
       <r>   -27.3016     0.0000     2.0000 </r>
       <r>   -27.1788     0.0000     2.0000 </r>
       <r>   -27.0560     0.0000     2.0000 </r>
       <r>   -26.9332     0.0000     2.0000 </r>
       <r>   -26.8104     0.0000     2.0000 </r>
       <r>   -26.6876     0.0000     2.0000 </r>
       <r>   -26.5649     0.0000     2.0000 </r>
       <r>   -26.4421     0.0000     2.0000 </r>
       <r>   -26.3193     0.0000     2.0000 </r>
       <r>   -26.1965     0.0000     2.0000 </r>
       <r>   -26.0737     0.0000     2.0000 </r>
       <r>   -25.9509     0.0000     2.0000 </r>
       <r>   -25.8281     0.0000     2.0000 </r>
       <r>   -25.7053     0.0000     2.0000 </r>
       <r>   -25.5825     0.0000     2.0000 </r>
       <r>   -25.4597     0.0000     2.0000 </r>
       <r>   -25.3370     0.0000     2.0000 </r>
       <r>   -25.2142     0.0000     2.0000 </r>
       <r>   -25.0914     0.0000     2.0000 </r>
       <r>   -24.9686     0.0000     2.0000 </r>
       <r>   -24.8458     0.0000     2.0000 </r>
       <r>   -24.7230     0.0000     2.0000 </r>
       <r>   -24.6002     0.0000     2.0000 </r>
       <r>   -24.4774     0.0000     2.0000 </r>
       <r>   -24.3546     0.0000     2.0000 </r>
       <r>   -24.2318     0.0000     2.0000 </r>
       <r>   -24.1091     0.0000     2.0000 </r>
       <r>   -23.9863     0.0000     2.0000 </r>
       <r>   -23.8635     0.0000     2.0000 </r>
       <r>   -23.7407     0.0000     2.0000 </r>
       <r>   -23.6179     0.0000     2.0000 </r>
       <r>   -23.4951     0.0000     2.0000 </r>
       <r>   -23.3723     0.0000     2.0000 </r>
       <r>   -23.2495     0.0000     2.0000 </r>
       <r>   -23.1267     0.0000     2.0000 </r>
       <r>   -23.0039     0.0000     2.0000 </r>
       <r>   -22.8812     0.0000     2.0000 </r>
       <r>   -22.7584     0.0000     2.0000 </r>
       <r>   -22.6356     0.0000     2.0000 </r>
       <r>   -22.5128     0.0000     2.0000 </r>
       <r>   -22.3900     0.0000     2.0000 </r>
       <r>   -22.2672     0.0000     2.0000 </r>
       <r>   -22.1444     0.0000     2.0000 </r>
       <r>   -22.0216     0.0000     2.0000 </r>
       <r>   -21.8988     0.0000     2.0000 </r>
       <r>   -21.7760     0.0000     2.0000 </r>
       <r>   -21.6533     0.0000     2.0000 </r>
       <r>   -21.5305     0.0000     2.0000 </r>
       <r>   -21.4077     0.0000     2.0000 </r>
       <r>   -21.2849     0.0000     2.0000 </r>
       <r>   -21.1621     0.0000     2.0000 </r>
       <r>   -21.0393     0.0000     2.0000 </r>
       <r>   -20.9165     0.0000     2.0000 </r>
       <r>   -20.7937     0.0000     2.0000 </r>
       <r>   -20.6709     0.0000     2.0000 </r>
       <r>   -20.5481     0.0000     2.0000 </r>
       <r>   -20.4254     0.0000     2.0000 </r>
       <r>   -20.3026     0.0000     2.0000 </r>
       <r>   -20.1798     0.0000     2.0000 </r>
       <r>   -20.0570     0.0000     2.0000 </r>
       <r>   -19.9342     0.0000     2.0000 </r>
       <r>   -19.8114     0.0000     2.0000 </r>
       <r>   -19.6886     0.0000     2.0000 </r>
       <r>   -19.5658     0.0000     2.0000 </r>
       <r>   -19.4430     0.0000     2.0000 </r>
       <r>   -19.3202     0.0000     2.0000 </r>
       <r>   -19.1975     0.0000     2.0000 </r>
       <r>   -19.0747     0.0000     2.0000 </r>
       <r>   -18.9519     0.0000     2.0000 </r>
       <r>   -18.8291     0.0000     2.0000 </r>
       <r>   -18.7063     0.0000     2.0000 </r>
       <r>   -18.5835     0.0000     2.0000 </r>
       <r>   -18.4607     0.0000     2.0000 </r>
       <r>   -18.3379     0.0000     2.0000 </r>
       <r>   -18.2151     0.0000     2.0000 </r>
       <r>   -18.0923     0.0000     2.0000 </r>
       <r>   -17.9696     0.0000     2.0000 </r>
       <r>   -17.8468     0.0000     2.0000 </r>
       <r>   -17.7240     0.0000     2.0000 </r>
       <r>   -17.6012     0.0000     2.0000 </r>
       <r>   -17.4784     0.0000     2.0000 </r>
       <r>   -17.3556     0.0000     2.0000 </r>
       <r>   -17.2328     0.0000     2.0000 </r>
       <r>   -17.1100     0.0000     2.0000 </r>
       <r>   -16.9872     0.0000     2.0000 </r>
       <r>   -16.8644     0.0000     2.0000 </r>
       <r>   -16.7417     0.0000     2.0000 </r>
       <r>   -16.6189     0.0000     2.0000 </r>
       <r>   -16.4961     0.0000     2.0000 </r>
       <r>   -16.3733     0.0000     2.0000 </r>
       <r>   -16.2505     0.0000     2.0000 </r>
       <r>   -16.1277     0.0000     2.0000 </r>
       <r>   -16.0049     0.0137     2.0017 </r>
       <r>   -15.8821     1.2904     2.1601 </r>
       <r>   -15.7593     8.9575     3.2600 </r>
       <r>   -15.6365     5.7119     3.9614 </r>
       <r>   -15.5138     0.3132     3.9999 </r>
       <r>   -15.3910     0.0012     4.0000 </r>
       <r>   -15.2682     0.0000     4.0000 </r>
       <r>   -15.1454     0.0000     4.0000 </r>
       <r>   -15.0226     0.0000     4.0000 </r>
       <r>   -14.8998     0.0000     4.0000 </r>
       <r>   -14.7770     0.0000     4.0000 </r>
       <r>   -14.6542     0.0000     4.0000 </r>
       <r>   -14.5314     0.0000     4.0000 </r>
       <r>   -14.4086     0.0000     4.0000 </r>
       <r>   -14.2859     0.0000     4.0000 </r>
       <r>   -14.1631     0.0000     4.0000 </r>
       <r>   -14.0403     0.0000     4.0000 </r>
       <r>   -13.9175     0.0000     4.0000 </r>
       <r>   -13.7947     0.0000     4.0000 </r>
       <r>   -13.6719     0.0000     4.0000 </r>
       <r>   -13.5491     0.0000     4.0000 </r>
       <r>   -13.4263     0.0000     4.0000 </r>
       <r>   -13.3035     0.0000     4.0000 </r>
       <r>   -13.1807     0.0005     4.0001 </r>
       <r>   -13.0580     0.2570     4.0316 </r>
       <r>   -12.9352     7.8620     4.9970 </r>
       <r>   -12.8124    19.7436     7.4213 </r>
       <r>   -12.6896     4.6286     7.9897 </r>
       <r>   -12.5668     0.0842     8.0000 </r>
       <r>   -12.4440     0.0001     8.0000 </r>
       <r>   -12.3212     0.0000     8.0000 </r>
       <r>   -12.1984     0.0000     8.0000 </r>
       <r>   -12.0756     0.0000     8.0000 </r>
       <r>   -11.9528     0.0000     8.0000 </r>
       <r>   -11.8301     0.0000     8.0000 </r>
       <r>   -11.7073     0.0000     8.0000 </r>
       <r>   -11.5845     0.0000     8.0000 </r>
       <r>   -11.4617     0.0000     8.0000 </r>
       <r>   -11.3389     0.0000     8.0000 </r>
       <r>   -11.2161     0.0000     8.0000 </r>
       <r>   -11.0933     0.0000     8.0000 </r>
       <r>   -10.9705     0.0000     8.0000 </r>
       <r>   -10.8477     0.0000     8.0000 </r>
       <r>   -10.7249     0.0000     8.0000 </r>
       <r>   -10.6022     0.0005     8.0001 </r>
       <r>   -10.4794     0.1942     8.0239 </r>
       <r>   -10.3566     4.7053     8.6017 </r>
       <r>   -10.2338     9.5592     9.7755 </r>
       <r>   -10.1110     1.8029     9.9968 </r>
       <r>    -9.9882     0.0258    10.0000 </r>
       <r>    -9.8654     0.0000    10.0000 </r>
       <r>    -9.7426     0.0000    10.0000 </r>
       <r>    -9.6198     0.0000    10.0000 </r>
       <r>    -9.4970     0.0000    10.0000 </r>
       <r>    -9.3743     0.0000    10.0000 </r>
       <r>    -9.2515     0.0000    10.0000 </r>
       <r>    -9.1287     0.0000    10.0000 </r>
       <r>    -9.0059     0.0000    10.0000 </r>
       <r>    -8.8831     0.0000    10.0000 </r>
       <r>    -8.7603     0.0000    10.0000 </r>
       <r>    -8.6375     0.0000    10.0000 </r>
       <r>    -8.5147     0.0000    10.0000 </r>
       <r>    -8.3919     0.0000    10.0000 </r>
       <r>    -8.2691     0.0000    10.0000 </r>
       <r>    -8.1464     0.0000    10.0000 </r>
       <r>    -8.0236     0.0000    10.0000 </r>
       <r>    -7.9008     0.0000    10.0000 </r>
       <r>    -7.7780     0.0000    10.0000 </r>
       <r>    -7.6552     0.0000    10.0000 </r>
       <r>    -7.5324     0.0000    10.0000 </r>
       <r>    -7.4096     0.0000    10.0000 </r>
       <r>    -7.2868     0.0000    10.0000 </r>
       <r>    -7.1640     0.0000    10.0000 </r>
       <r>    -7.0412     0.0000    10.0000 </r>
       <r>    -6.9185     0.0000    10.0000 </r>
       <r>    -6.7957     0.0000    10.0000 </r>
       <r>    -6.6729     0.0000    10.0000 </r>
       <r>    -6.5501     0.0000    10.0000 </r>
       <r>    -6.4273     0.0000    10.0000 </r>
       <r>    -6.3045     0.0000    10.0000 </r>
       <r>    -6.1817     0.0000    10.0000 </r>
       <r>    -6.0589     0.0000    10.0000 </r>
       <r>    -5.9361     0.0000    10.0000 </r>
       <r>    -5.8133     0.0000    10.0000 </r>
       <r>    -5.6906     0.0000    10.0000 </r>
       <r>    -5.5678     0.0000    10.0000 </r>
       <r>    -5.4450     0.0000    10.0000 </r>
       <r>    -5.3222     0.0000    10.0000 </r>
       <r>    -5.1994     0.0000    10.0000 </r>
       <r>    -5.0766     0.0000    10.0000 </r>
       <r>    -4.9538     0.0000    10.0000 </r>
       <r>    -4.8310     0.0000    10.0000 </r>
       <r>    -4.7082     0.0000    10.0000 </r>
       <r>    -4.5854     0.0000    10.0000 </r>
       <r>    -4.4627     0.0000    10.0000 </r>
       <r>    -4.3399     0.0000    10.0000 </r>
       <r>    -4.2171     0.0000    10.0000 </r>
       <r>    -4.0943     0.0000    10.0000 </r>
       <r>    -3.9715     0.0000    10.0000 </r>
       <r>    -3.8487     0.0000    10.0000 </r>
       <r>    -3.7259     0.0000    10.0000 </r>
       <r>    -3.6031     0.0000    10.0000 </r>
       <r>    -3.4803     0.0000    10.0000 </r>
       <r>    -3.3575     0.0000    10.0000 </r>
       <r>    -3.2348     0.0000    10.0000 </r>
       <r>    -3.1120     0.0000    10.0000 </r>
       <r>    -2.9892     0.0000    10.0000 </r>
       <r>    -2.8664     0.0000    10.0000 </r>
       <r>    -2.7436     0.0000    10.0000 </r>
       <r>    -2.6208     0.0000    10.0000 </r>
       <r>    -2.4980     0.0000    10.0000 </r>
       <r>    -2.3752     0.0000    10.0000 </r>
       <r>    -2.2524     0.0000    10.0000 </r>
       <r>    -2.1296     0.0000    10.0000 </r>
       <r>    -2.0069     0.0000    10.0000 </r>
       <r>    -1.8841     0.0000    10.0000 </r>
       <r>    -1.7613     0.0000    10.0000 </r>
       <r>    -1.6385     0.0000    10.0000 </r>
       <r>    -1.5157     0.0356    10.0044 </r>
       <r>    -1.3929     2.9673    10.3687 </r>
       <r>    -1.2701    18.4566    12.6350 </r>
       <r>    -1.1473    10.5967    13.9362 </r>
       <r>    -1.0245     0.5180    13.9998 </r>
       <r>    -0.9018     0.0017    14.0000 </r>
       <r>    -0.7790     0.0000    14.0000 </r>
       <r>    -0.6562     0.0000    14.0000 </r>
       <r>    -0.5334     0.0000    14.0000 </r>
       <r>    -0.4106     0.0002    14.0000 </r>
       <r>    -0.2878     0.1160    14.0143 </r>
       <r>    -0.1650     3.7547    14.4753 </r>
       <r>    -0.0422     9.9211    15.6935 </r>
       <r>     0.0806     2.4487    15.9942 </r>
       <r>     0.2034     0.0471    16.0000 </r>
       <r>     0.3261     0.0001    16.0000 </r>
       <r>     0.4489     0.0569    16.0070 </r>
       <r>     0.5717     3.5969    16.4487 </r>
       <r>     0.6945    26.0913    19.6524 </r>
       <r>     0.8173    44.1731    25.0764 </r>
       <r>     0.9401    21.7293    27.7446 </r>
       <r>     1.0629     2.0592    27.9974 </r>
       <r>     1.1857     0.0226    28.0002 </r>
       <r>     1.3085     0.4661    28.0574 </r>
       <r>     1.4313     9.9170    29.2751 </r>
       <r>     1.5540    18.7189    31.5736 </r>
       <r>     1.6768     3.4225    31.9939 </r>
       <r>     1.7996     0.0498    32.0000 </r>
       <r>     1.9224     0.0000    32.0000 </r>
       <r>     2.0452     0.0000    32.0000 </r>
       <r>     2.1680     0.0000    32.0000 </r>
       <r>     2.2908     0.0000    32.0000 </r>
       <r>     2.4136     0.0000    32.0000 </r>
       <r>     2.5364     0.0000    32.0000 </r>
       <r>     2.6592     0.0000    32.0000 </r>
       <r>     2.7819     0.0000    32.0000 </r>
       <r>     2.9047     0.0000    32.0000 </r>
       <r>     3.0275     0.0000    32.0000 </r>
       <r>     3.1503     0.0000    32.0000 </r>
      </set>
     </set>
    </array>
   </total>
  </dos>
 </calculation>
 <structure name="finalpos" >
  <crystal>
   <varray name="basis" >
    <v>      13.80000000       0.00000000       0.00000000 </v>
    <v>       0.00000000      13.10000000       0.00000000 </v>
    <v>       0.00000000       0.00000000      12.90000000 </v>
   </varray>
   <i name="volume">   2332.06200000 </i>
   <varray name="rec_basis" >
    <v>       0.07246377       0.00000000       0.00000000 </v>
    <v>       0.00000000       0.07633588       0.00000000 </v>
    <v>       0.00000000       0.00000000       0.07751938 </v>
   </varray>
  </crystal>
  <varray name="positions" >
   <v>       0.00000000       0.00000000       0.99922251 </v>
   <v>       0.00000000       0.00000000       0.08823485 </v>
  </varray>
 </structure>
</modeling>
