 DBCSR| CPU Multiplication driver                                           XSMM (U)
 DBCSR| Multrec recursion limit                                              512 (U)
 DBCSR| Multiplication stack size                                           1000 (D)
 DBCSR| Maximum elements for images                                    UNLIMITED (U)
 DBCSR| Multiplicative factor virtual images                                   1 (U)
 DBCSR| Use multiplication densification                                       T (D)
 DBCSR| Multiplication size stacks                                             3 (U)
 DBCSR| Use memory pool for CPU allocation                                     F (U)
 DBCSR| Number of 3D layers                                               SINGLE (U)
 DBCSR| Use MPI memory allocation                                              F (U)
 DBCSR| Use RMA algorithm                                                      F (U)
 DBCSR| Use Communication thread                                               T (U)
 DBCSR| Communication thread load                                             87 (D)
 DBCSR| MPI: My process id                                                     0
 DBCSR| MPI: Number of processes                                              32
 DBCSR| OMP: Current number of threads                                         1
 DBCSR| OMP: Max number of threads                                             1
 DBCSR| Split modifier for TAS multiplication algorithm                  1.0E+00 (U)


  **** **** ******  **  PROGRAM STARTED AT               2026-06-28 02:07:52.790
 ***** ** ***  *** **   PROGRAM STARTED ON                                  cu07
 **    ****   ******    PROGRAM STARTED BY                                 rudin
 ***** **    ** ** **   PROGRAM PROCESS ID                               1324083
  **** **  *******  **  PROGRAM STARTED IN /home/rudin/code/kylin-pbc/art/exampl
                                           e/scaling/Si128-HSE06

 CP2K| version string:                                       CP2K version 2024.3
 CP2K| source code revision number:                                  git:6712648
 CP2K| cp2kflags: omp libint fftw3 libxc libgrpp elpa parallel scalapack mpi_f08
 CP2K|             cosma xsmm plumed2 spglib mkl libvori libbqb
 CP2K| is freely available from                            https://www.cp2k.org/
 CP2K| Program compiled at            2026年 01月 07日 星期三 01:43:54 CST
 CP2K| Program compiled on                                                  mu01
 CP2K| Program compiled for                                                local
 CP2K| Data directory path    /software/Applications/cp2k/cp2k-2024.3-oneapi-202
 CP2K| Input file name                                                  cp2k.inp
 
 GLOBAL| Force Environment number                                              1
 GLOBAL| Basis set file name                                        BASIS_MOLOPT
 GLOBAL| Potential file name                                      GTH_POTENTIALS
 GLOBAL| MM Potential file name                                     MM_POTENTIAL
 GLOBAL| Coordinate file name                                      __STD_INPUT__
 GLOBAL| Method name                                                        CP2K
 GLOBAL| Project name                                           Si128-HSE06-ADMM
 GLOBAL| Run type                                                         ENERGY
 GLOBAL| FFT library                                                       FFTW3
 GLOBAL| Diagonalization library                                            ELPA
 GLOBAL| DGEMM library                                                      BLAS
 GLOBAL| Minimum number of eigenvectors for ELPA usage                        16
 GLOBAL| Orthonormality check for eigenvectors                          DISABLED
 GLOBAL| Matrix multiplication library                                     COSMA
 GLOBAL| All-to-all communication in single precision                          F
 GLOBAL| FFTs using library dependent lengths                                  F
 GLOBAL| Grid backend                                                       AUTO
 GLOBAL| Global print level                                               MEDIUM
 GLOBAL| MPI I/O enabled                                                       T
 GLOBAL| Total number of message passing processes                            32
 GLOBAL| Number of threads for this process                                    1
 GLOBAL| This output is from process                                           0
 GLOBAL| Stack size for threads created by OpenMP (OMP_STACKSIZE)        default
 GLOBAL| CPU model name                              INTEL(R) XEON(R) GOLD 6544Y
 GLOBAL| CPUID                                                              1003

 MEMORY| system memory details [Kb]
 MEMORY|                        rank 0           min           max       average
 MEMORY| MemTotal            527978120     527978120     527978120     527978120
 MEMORY| MemFree             520625700     520625700     520626708     520625991
 MEMORY| Buffers                   924           924           924           924
 MEMORY| Cached                 988476        988196        988476        988327
 MEMORY| Slab                   477460        477460        477460        477460
 MEMORY| SReclaimable           137292        137292        137292        137292
 MEMORY| MemLikelyFree       521752392     521752112     521753120     521752534


 *** Fundamental physical constants (SI units) ***

 *** Literature: B. J. Mohr and B. N. Taylor,
 ***             CODATA recommended values of the fundamental physical
 ***             constants: 2006, Web Version 5.1
 ***             http://physics.nist.gov/constants

 Speed of light in vacuum [m/s]                             2.99792458000000E+08
 Magnetic constant or permeability of vacuum [N/A**2]       1.25663706143592E-06
 Electric constant or permittivity of vacuum [F/m]          8.85418781762039E-12
 Planck constant (h) [J*s]                                  6.62606896000000E-34
 Planck constant (h-bar) [J*s]                              1.05457162825177E-34
 Elementary charge [C]                                      1.60217648700000E-19
 Electron mass [kg]                                         9.10938215000000E-31
 Electron g factor [ ]                                     -2.00231930436220E+00
 Proton mass [kg]                                           1.67262163700000E-27
 Fine-structure constant                                    7.29735253760000E-03
 Rydberg constant [1/m]                                     1.09737315685270E+07
 Avogadro constant [1/mol]                                  6.02214179000000E+23
 Boltzmann constant [J/K]                                   1.38065040000000E-23
 Atomic mass unit [kg]                                      1.66053878200000E-27
 Bohr radius [m]                                            5.29177208590000E-11

 *** Conversion factors ***

 [u] -> [a.u.]                                              1.82288848426455E+03
 [Angstrom] -> [Bohr] = [a.u.]                              1.88972613288564E+00
 [a.u.] = [Bohr] -> [Angstrom]                              5.29177208590000E-01
 [a.u.] -> [s]                                              2.41888432650478E-17
 [a.u.] -> [fs]                                             2.41888432650478E-02
 [a.u.] -> [J]                                              4.35974393937059E-18
 [a.u.] -> [N]                                              8.23872205491840E-08
 [a.u.] -> [K]                                              3.15774647902944E+05
 [a.u.] -> [kJ/mol]                                         2.62549961709828E+03
 [a.u.] -> [kcal/mol]                                       6.27509468713739E+02
 [a.u.] -> [Pa]                                             2.94210107994716E+13
 [a.u.] -> [bar]                                            2.94210107994716E+08
 [a.u.] -> [atm]                                            2.90362800883016E+08
 [a.u.] -> [eV]                                             2.72113838565563E+01
 [a.u.] -> [Hz]                                             6.57968392072181E+15
 [a.u.] -> [1/cm] (wave numbers)                            2.19474631370540E+05
 [a.u./Bohr**2] -> [1/cm]                                   5.14048714338585E+03
 

 CELL_TOP| Volume [angstrom^3]:                                      2563.063648
 CELL_TOP| Vector a [angstrom    21.724     0.000     0.000   |a| =    21.724000
 CELL_TOP| Vector b [angstrom     0.000    10.862     0.000   |b| =    10.862000
 CELL_TOP| Vector c [angstrom     0.000     0.000    10.862   |c| =    10.862000
 CELL_TOP| Angle (b,c), alpha [degree]:                                90.000000
 CELL_TOP| Angle (a,c), beta  [degree]:                                90.000000
 CELL_TOP| Angle (a,b), gamma [degree]:                                90.000000
 CELL_TOP| Numerically orthorhombic:                                         YES
 CELL_TOP| Periodicity                                                       XYZ
 
 GENERATE|  Preliminary Number of Bonds generated:                             0
 GENERATE|  Achieved consistency in connectivity generation.

 CELL| Volume [angstrom^3]:                                          2563.063648
 CELL| Vector a [angstrom]:      21.724     0.000     0.000   |a| =    21.724000
 CELL| Vector b [angstrom]:       0.000    10.862     0.000   |b| =    10.862000
 CELL| Vector c [angstrom]:       0.000     0.000    10.862   |c| =    10.862000
 CELL| Angle (b,c), alpha [degree]:                                    90.000000
 CELL| Angle (a,c), beta  [degree]:                                    90.000000
 CELL| Angle (a,b), gamma [degree]:                                    90.000000
 CELL| Numerically orthorhombic:                                             YES
 CELL| Periodicity                                                           XYZ

 CELL_REF| Volume [angstrom^3]:                                      2563.063648
 CELL_REF| Vector a [angstrom    21.724     0.000     0.000   |a| =    21.724000
 CELL_REF| Vector b [angstrom     0.000    10.862     0.000   |b| =    10.862000
 CELL_REF| Vector c [angstrom     0.000     0.000    10.862   |c| =    10.862000
 CELL_REF| Angle (b,c), alpha [degree]:                                90.000000
 CELL_REF| Angle (a,c), beta  [degree]:                                90.000000
 CELL_REF| Angle (a,b), gamma [degree]:                                90.000000
 CELL_REF| Numerically orthorhombic:                                         YES
 CELL_REF| Periodicity                                                       XYZ

 *******************************************************************************
 *******************************************************************************
 **                                                                           **
 **     #####                         ##              ##                      **
 **    ##   ##            ##          ##              ##                      **
 **   ##     ##                       ##            ######                    **
 **   ##     ##  ##   ##  ##   #####  ##  ##   ####   ##    #####    #####    **
 **   ##     ##  ##   ##  ##  ##      ## ##   ##      ##   ##   ##  ##   ##   **
 **   ##  ## ##  ##   ##  ##  ##      ####     ###    ##   ######   ######    **
 **    ##  ###   ##   ##  ##  ##      ## ##      ##   ##   ##       ##        **
 **     #######   #####   ##   #####  ##  ##  ####    ##    #####   ##        **
 **           ##                                                    ##        **
 **                                                                           **
 **                                                ... make the atoms dance   **
 **                                                                           **
 **            Copyright (C) by CP2K developers group (2000-2024)             **
 **                      J. Chem. Phys. 152, 194103 (2020)                    **
 **                                                                           **
 *******************************************************************************

 DFT| Spin restricted Kohn-Sham (RKS) calculation                            RKS
 DFT| Multiplicity                                                             1
 DFT| Number of spin states                                                    1
 DFT| Charge                                                                   0
 DFT| Self-interaction correction (SIC)                                       NO
 DFT| Cutoffs: density                                              1.000000E-10
 DFT|          gradient                                             1.000000E-10
 DFT|          tau                                                  1.000000E-10
 DFT|          cutoff_smoothing_range                               0.000000E+00
 DFT| XC density smoothing                                                  NONE
 DFT| XC derivatives                                                          PW

 FUNCTIONAL| PBE:
 FUNCTIONAL| J.P.Perdew, K.Burke, M.Ernzerhof, Phys. Rev. Letter, vol. 77, n 18,
 FUNCTIONAL|  pp. 3865-3868, (1996)sx=0.000sc=1.000{spin unpolarized}           
 FUNCTIONAL| XWPBE:
 FUNCTIONAL| Jochen Heyd and Gustavo E. Scuseria, J. Chem. Phys., 120, 7274 {LDA
 FUNCTIONAL|  version}                                                          


 QS| Method:                                                                 GPW
 QS| Density plane wave grid type                        NON-SPHERICAL FULLSPACE
 QS| Number of grid levels:                                                    4
 QS| Density cutoff [a.u.]:                                                300.0
 QS| Multi grid cutoff [a.u.]: 1) grid level                               300.0
 QS|                           2) grid level                               100.0
 QS|                           3) grid level                                33.3
 QS|                           4) grid level                                11.1
 QS| Grid level progression factor:                                          3.0
 QS| Relative density cutoff [a.u.]:                                        30.0
 QS| Interaction thresholds: eps_pgf_orb:                                1.0E-06
 QS|                         eps_filter_matrix:                          0.0E+00
 QS|                         eps_core_charge:                            1.0E-14
 QS|                         eps_rho_gspace:                             1.0E-12
 QS|                         eps_rho_rspace:                             1.0E-12
 QS|                         eps_gvg_rspace:                             1.0E-06
 QS|                         eps_ppl:                                    1.0E-02
 QS|                         eps_ppnl:                                   1.0E-08

 ADMM| Specific ADMM type specified                                        ADMMS
 ADMM| Density matrix purification method                                   NONE
 ADMM| Orbital projection with charge constrain
 ADMM| Use Merlot (2014) scaling model
 ADMM| eps_filter                                                0.000000000    
 ADMM| Exchange functional in correction term                            (W)PBEX



 ATOMIC KIND INFORMATION

  1. Atomic kind: Si                                    Number of atoms:     128

     Orbital Basis Set                                        DZVP-MOLOPT-SR-GTH

       Number of orbital shell sets:                                           1
       Number of orbital shells:                                               5
       Number of primitive Cartesian functions:                                4
       Number of Cartesian basis functions:                                   14
       Number of spherical basis functions:                                   13
       Norm type:                                                              2

       Normalised Cartesian orbitals:

                        Set   Shell   Orbital            Exponent    Coefficient

                          1       1    2s                1.256768       0.294045
                                                         0.506394      -0.015884
                                                         0.238884      -0.207657
                                                         0.087337      -0.036225

                          1       2    3s                1.256768      -1.532347
                                                         0.506394       0.524539
                                                         0.238884       0.025013
                                                         0.087337      -0.052203

                          1       3    3px               1.256768       0.152274
                                                         0.506394      -0.154145
                                                         0.238884      -0.115581
                                                         0.087337      -0.028372
                          1       3    3py               1.256768       0.152274
                                                         0.506394      -0.154145
                                                         0.238884      -0.115581
                                                         0.087337      -0.028372
                          1       3    3pz               1.256768       0.152274
                                                         0.506394      -0.154145
                                                         0.238884      -0.115581
                                                         0.087337      -0.028372

                          1       4    4px               1.256768       0.313378
                                                         0.506394      -0.415360
                                                         0.238884      -0.022539
                                                         0.087337       0.078473
                          1       4    4py               1.256768       0.313378
                                                         0.506394      -0.415360
                                                         0.238884      -0.022539
                                                         0.087337       0.078473
                          1       4    4pz               1.256768       0.313378
                                                         0.506394      -0.415360
                                                         0.238884      -0.022539
                                                         0.087337       0.078473

                          1       5    4dx2              1.256768       0.325879
                                                         0.506394       0.163831
                                                         0.238884       0.044076
                                                         0.087337       0.010608
                          1       5    4dxy              1.256768       0.564439
                                                         0.506394       0.283764
                                                         0.238884       0.076342
                                                         0.087337       0.018373
                          1       5    4dxz              1.256768       0.564439
                                                         0.506394       0.283764
                                                         0.238884       0.076342
                                                         0.087337       0.018373
                          1       5    4dy2              1.256768       0.325879
                                                         0.506394       0.163831
                                                         0.238884       0.044076
                                                         0.087337       0.010608
                          1       5    4dyz              1.256768       0.564439
                                                         0.506394       0.283764
                                                         0.238884       0.076342
                                                         0.087337       0.018373
                          1       5    4dz2              1.256768       0.325879
                                                         0.506394       0.163831
                                                         0.238884       0.044076
                                                         0.087337       0.010608

     Auxiliary Fit Basis Set                                              cpFIT3

       Number of orbital shell sets:                                           5
       Number of orbital shells:                                               5
       Number of primitive Cartesian functions:                                7
       Number of Cartesian basis functions:                                   14
       Number of spherical basis functions:                                   13
       Norm type:                                                              2

       Normalised Cartesian orbitals:

                        Set   Shell   Orbital            Exponent    Coefficient

                          1       1    1px               0.089490       0.069768
                          1       1    1py               0.089490       0.069768
                          1       1    1pz               0.089490       0.069768

                          2       1    1s                0.096480       0.123378

                          3       1    1s                0.246960      -0.309315
                                                         1.277560       0.429908

                          4       1    1px               0.295630       0.313983
                                                         2.202470      -0.124968
                          4       1    1py               0.295630       0.313983
                                                         2.202470      -0.124968
                          4       1    1pz               0.295630       0.313983
                                                         2.202470      -0.124968

                          5       1    1dx2              0.450000       0.406941
                          5       1    1dxy              0.450000       0.704842
                          5       1    1dxz              0.450000       0.704842
                          5       1    1dy2              0.450000       0.406941
                          5       1    1dyz              0.450000       0.704842
                          5       1    1dz2              0.450000       0.406941

     RI HFX Basis Set                                           Si-RI-AUX-cpFIT3

       Number of orbital shell sets:                                           2
       Number of orbital shells:                                              19
       Number of primitive Cartesian functions:                                7
       Number of Cartesian basis functions:                                   70
       Number of spherical basis functions:                                   61
       Norm type:                                                              2

       Normalised Cartesian orbitals:

                        Set   Shell   Orbital            Exponent    Coefficient

                          1       1    1s                3.381949       1.777401
                                                         1.878860       0.000000
                                                         1.043811       0.000000
                                                         0.579895       0.000000
                                                         0.322164       0.000000
                                                         0.178980       0.000000

                          1       2    2s                3.381949      -4.815164
                                                         1.878860       3.302892
                                                         1.043811       0.000000
                                                         0.579895       0.000000
                                                         0.322164       0.000000
                                                         0.178980       0.000000

                          1       3    3s                3.381949       7.218514
                                                         1.878860      -9.704678
                                                         1.043811       3.667693
                                                         0.579895       0.000000
                                                         0.322164       0.000000
                                                         0.178980       0.000000

                          1       4    4s                3.381949      -7.929171
                                                         1.878860      14.922211
                                                         1.043811     -11.057577
                                                         0.579895       3.167702
                                                         0.322164       0.000000
                                                         0.178980       0.000000

                          1       5    5s                3.381949       7.312486
                                                         1.878860     -16.560331
                                                         1.043811      17.180156
                                                         0.579895      -9.653519
                                                         0.322164       2.393165
                                                         0.178980       0.000000

                          1       6    6s                3.381949      -6.110175
                                                         1.878860      15.342782
                                                         1.043811     -19.154226
                                                         0.579895      15.070458
                                                         0.322164      -7.330131
                                                         0.178980       1.681102

                          1       7    2px               3.381949       6.537307
                                                         1.878860       0.000000
                                                         1.043811       0.000000
                                                         0.579895       0.000000
                                                         0.322164       0.000000
                                                         0.178980       0.000000
                          1       7    2py               3.381949       6.537307
                                                         1.878860       0.000000
                                                         1.043811       0.000000
                                                         0.579895       0.000000
                                                         0.322164       0.000000
                                                         0.178980       0.000000
                          1       7    2pz               3.381949       6.537307
                                                         1.878860       0.000000
                                                         1.043811       0.000000
                                                         0.579895       0.000000
                                                         0.322164       0.000000
                                                         0.178980       0.000000

                          1       8    3px               3.381949     -13.421219
                                                         1.878860       7.160293
                                                         1.043811       0.000000
                                                         0.579895       0.000000
                                                         0.322164       0.000000
                                                         0.178980       0.000000
                          1       8    3py               3.381949     -13.421219
                                                         1.878860       7.160293
                                                         1.043811       0.000000
                                                         0.579895       0.000000
                                                         0.322164       0.000000
                                                         0.178980       0.000000
                          1       8    3pz               3.381949     -13.421219
                                                         1.878860       7.160293
                                                         1.043811       0.000000
                                                         0.579895       0.000000
                                                         0.322164       0.000000
                                                         0.178980       0.000000

                          1       9    4px               3.381949      16.969875
                                                         1.878860     -17.063359
                                                         1.043811       5.199506
                                                         0.579895       0.000000
                                                         0.322164       0.000000
                                                         0.178980       0.000000
                          1       9    4py               3.381949      16.969875
                                                         1.878860     -17.063359
                                                         1.043811       5.199506
                                                         0.579895       0.000000
                                                         0.322164       0.000000
                                                         0.178980       0.000000
                          1       9    4pz               3.381949      16.969875
                                                         1.878860     -17.063359
                                                         1.043811       5.199506
                                                         0.579895       0.000000
                                                         0.322164       0.000000
                                                         0.178980       0.000000

                          1      10    5px               3.381949     -16.667809
                                                         1.878860      22.696658
                                                         1.043811     -13.047861
                                                         0.579895       3.098650
                                                         0.322164       0.000000
                                                         0.178980       0.000000
                          1      10    5py               3.381949     -16.667809
                                                         1.878860      22.696658
                                                         1.043811     -13.047861
                                                         0.579895       3.098650
                                                         0.322164       0.000000
                                                         0.178980       0.000000
                          1      10    5pz               3.381949     -16.667809
                                                         1.878860      22.696658
                                                         1.043811     -13.047861
                                                         0.579895       3.098650
                                                         0.322164       0.000000
                                                         0.178980       0.000000

                          1      11    6px               3.381949      14.245403
                                                         1.878860     -22.763562
                                                         1.043811      17.728616
                                                         0.579895      -7.950208
                                                         0.322164       1.666493
                                                         0.178980       0.000000
                          1      11    6py               3.381949      14.245403
                                                         1.878860     -22.763562
                                                         1.043811      17.728616
                                                         0.579895      -7.950208
                                                         0.322164       1.666493
                                                         0.178980       0.000000
                          1      11    6pz               3.381949      14.245403
                                                         1.878860     -22.763562
                                                         1.043811      17.728616
                                                         0.579895      -7.950208
                                                         0.322164       1.666493
                                                         0.178980       0.000000

                          1      12    7px               3.381949     -11.279874
                                                         1.878860      19.637060
                                                         1.043811     -17.948085
                                                         0.579895      10.908166
                                                         0.322164      -4.320501
                                                         0.178980       0.849040
                          1      12    7py               3.381949     -11.279874
                                                         1.878860      19.637060
                                                         1.043811     -17.948085
                                                         0.579895      10.908166
                                                         0.322164      -4.320501
                                                         0.178980       0.849040
                          1      12    7pz               3.381949     -11.279874
                                                         1.878860      19.637060
                                                         1.043811     -17.948085
                                                         0.579895      10.908166
                                                         0.322164      -4.320501
                                                         0.178980       0.849040

                          1      13    3dx2              3.381949      13.881991
                                                         1.878860       0.000000
                                                         1.043811       0.000000
                                                         0.579895       0.000000
                                                         0.322164       0.000000
                                                         0.178980       0.000000
                          1      13    3dxy              3.381949      24.044314
                                                         1.878860       0.000000
                                                         1.043811       0.000000
                                                         0.579895       0.000000
                                                         0.322164       0.000000
                                                         0.178980       0.000000
                          1      13    3dxz              3.381949      24.044314
                                                         1.878860       0.000000
                                                         1.043811       0.000000
                                                         0.579895       0.000000
                                                         0.322164       0.000000
                                                         0.178980       0.000000
                          1      13    3dy2              3.381949      13.881991
                                                         1.878860       0.000000
                                                         1.043811       0.000000
                                                         0.579895       0.000000
                                                         0.322164       0.000000
                                                         0.178980       0.000000
                          1      13    3dyz              3.381949      24.044314
                                                         1.878860       0.000000
                                                         1.043811       0.000000
                                                         0.579895       0.000000
                                                         0.322164       0.000000
                                                         0.178980       0.000000
                          1      13    3dz2              3.381949      13.881991
                                                         1.878860       0.000000
                                                         1.043811       0.000000
                                                         0.579895       0.000000
                                                         0.322164       0.000000
                                                         0.178980       0.000000

                          1      14    4dx2              3.381949     -23.558178
                                                         1.878860       9.775434
                                                         1.043811       0.000000
                                                         0.579895       0.000000
                                                         0.322164       0.000000
                                                         0.178980       0.000000
                          1      14    4dxy              3.381949     -40.803962
                                                         1.878860      16.931549
                                                         1.043811       0.000000
                                                         0.579895       0.000000
                                                         0.322164       0.000000
                                                         0.178980       0.000000
                          1      14    4dxz              3.381949     -40.803962
                                                         1.878860      16.931549
                                                         1.043811       0.000000
                                                         0.579895       0.000000
                                                         0.322164       0.000000
                                                         0.178980       0.000000
                          1      14    4dy2              3.381949     -23.558178
                                                         1.878860       9.775434
                                                         1.043811       0.000000
                                                         0.579895       0.000000
                                                         0.322164       0.000000
                                                         0.178980       0.000000
                          1      14    4dyz              3.381949     -40.803962
                                                         1.878860      16.931549
                                                         1.043811       0.000000
                                                         0.579895       0.000000
                                                         0.322164       0.000000
                                                         0.178980       0.000000
                          1      14    4dz2              3.381949     -23.558178
                                                         1.878860       9.775434
                                                         1.043811       0.000000
                                                         0.579895       0.000000
                                                         0.322164       0.000000
                                                         0.178980       0.000000

                          1      15    5dx2              3.381949      26.186024
                                                         1.878860     -19.726332
                                                         1.043811       4.838723
                                                         0.579895       0.000000
                                                         0.322164       0.000000
                                                         0.178980       0.000000
                          1      15    5dxy              3.381949      45.355523
                                                         1.878860     -34.167010
                                                         1.043811       8.380914
                                                         0.579895       0.000000
                                                         0.322164       0.000000
                                                         0.178980       0.000000
                          1      15    5dxz              3.381949      45.355523
                                                         1.878860     -34.167010
                                                         1.043811       8.380914
                                                         0.579895       0.000000
                                                         0.322164       0.000000
                                                         0.178980       0.000000
                          1      15    5dy2              3.381949      26.186024
                                                         1.878860     -19.726332
                                                         1.043811       4.838723
                                                         0.579895       0.000000
                                                         0.322164       0.000000
                                                         0.178980       0.000000
                          1      15    5dyz              3.381949      45.355523
                                                         1.878860     -34.167010
                                                         1.043811       8.380914
                                                         0.579895       0.000000
                                                         0.322164       0.000000
                                                         0.178980       0.000000
                          1      15    5dz2              3.381949      26.186024
                                                         1.878860     -19.726332
                                                         1.043811       4.838723
                                                         0.579895       0.000000
                                                         0.322164       0.000000
                                                         0.178980       0.000000

                          1      16    6dx2              3.381949     -23.532947
                                                         1.878860      23.283831
                                                         1.043811     -10.383618
                                                         0.579895       2.036764
                                                         0.322164       0.000000
                                                         0.178980       0.000000
                          1      16    6dxy              3.381949     -40.760260
                                                         1.878860      40.328778
                                                         1.043811     -17.984954
                                                         0.579895       3.527778
                                                         0.322164       0.000000
                                                         0.178980       0.000000
                          1      16    6dxz              3.381949     -40.760260
                                                         1.878860      40.328778
                                                         1.043811     -17.984954
                                                         0.579895       3.527778
                                                         0.322164       0.000000
                                                         0.178980       0.000000
                          1      16    6dy2              3.381949     -23.532947
                                                         1.878860      23.283831
                                                         1.043811     -10.383618
                                                         0.579895       2.036764
                                                         0.322164       0.000000
                                                         0.178980       0.000000
                          1      16    6dyz              3.381949     -40.760260
                                                         1.878860      40.328778
                                                         1.043811     -17.984954
                                                         0.579895       3.527778
                                                         0.322164       0.000000
                                                         0.178980       0.000000
                          1      16    6dz2              3.381949     -23.532947
                                                         1.878860      23.283831
                                                         1.043811     -10.383618
                                                         0.579895       2.036764
                                                         0.322164       0.000000
                                                         0.178980       0.000000

                          1      17    7dx2              3.381949      18.889352
                                                         1.878860     -21.444636
                                                         1.043811      12.567515
                                                         0.579895      -4.487236
                                                         0.322164       0.790810
                                                         0.178980       0.000000
                          1      17    7dxy              3.381949      32.717318
                                                         1.878860     -37.143199
                                                         1.043811      21.767574
                                                         0.579895      -7.772121
                                                         0.322164       1.369724
                                                         0.178980       0.000000
                          1      17    7dxz              3.381949      32.717318
                                                         1.878860     -37.143199
                                                         1.043811      21.767574
                                                         0.579895      -7.772121
                                                         0.322164       1.369724
                                                         0.178980       0.000000
                          1      17    7dy2              3.381949      18.889352
                                                         1.878860     -21.444636
                                                         1.043811      12.567515
                                                         0.579895      -4.487236
                                                         0.322164       0.790810
                                                         0.178980       0.000000
                          1      17    7dyz              3.381949      32.717318
                                                         1.878860     -37.143199
                                                         1.043811      21.767574
                                                         0.579895      -7.772121
                                                         0.322164       1.369724
                                                         0.178980       0.000000
                          1      17    7dz2              3.381949      18.889352
                                                         1.878860     -21.444636
                                                         1.043811      12.567515
                                                         0.579895      -4.487236
                                                         0.322164       0.790810
                                                         0.178980       0.000000

                          1      18    8dx2              3.381949     -14.281687
                                                         1.878860      17.397534
                                                         1.043811     -11.700224
                                                         0.579895       5.492725
                                                         0.322164      -1.763529
                                                         0.178980       0.294757
                          1      18    8dxy              3.381949     -24.736607
                                                         1.878860      30.133412
                                                         1.043811     -20.265382
                                                         0.579895       9.513680
                                                         0.322164      -3.054522
                                                         0.178980       0.510533
                          1      18    8dxz              3.381949     -24.736607
                                                         1.878860      30.133412
                                                         1.043811     -20.265382
                                                         0.579895       9.513680
                                                         0.322164      -3.054522
                                                         0.178980       0.510533
                          1      18    8dy2              3.381949     -14.281687
                                                         1.878860      17.397534
                                                         1.043811     -11.700224
                                                         0.579895       5.492725
                                                         0.322164      -1.763529
                                                         0.178980       0.294757
                          1      18    8dyz              3.381949     -24.736607
                                                         1.878860      30.133412
                                                         1.043811     -20.265382
                                                         0.579895       9.513680
                                                         0.322164      -3.054522
                                                         0.178980       0.510533
                          1      18    8dz2              3.381949     -14.281687
                                                         1.878860      17.397534
                                                         1.043811     -11.700224
                                                         0.579895       5.492725
                                                         0.322164      -1.763529
                                                         0.178980       0.294757

                          2       1    4fx3              0.539490       0.367212
                          2       1    4fx2y             0.539490       0.821111
                          2       1    4fx2z             0.539490       0.821111
                          2       1    4fxy2             0.539490       0.821111
                          2       1    4fxyz             0.539490       1.422207
                          2       1    4fxz2             0.539490       0.821111
                          2       1    4fy3              0.539490       0.367212
                          2       1    4fy2z             0.539490       0.821111
                          2       1    4fyz2             0.539490       0.821111
                          2       1    4fz3              0.539490       0.367212

       Atomic covalent radius [Angstrom]:                                  1.110

       Atomic van der Waals radius [Angstrom]:                             2.100

     GTH Potential information for                                    GTH-PBE-q4

       Description:                       Goedecker-Teter-Hutter pseudopotential
                                           Goedecker et al., PRB 54, 1703 (1996)
                                          Hartwigsen et al., PRB 58, 3641 (1998)
                                                      Krack, TCA 114, 145 (2005)

       Gaussian exponent of the core charge distribution:               2.582645
       Electronic configuration (s p d ...):                               2   2

       Parameters of the local part of the GTH pseudopotential:

                          rloc        C1          C2          C3          C4
                        0.440000   -6.269288

       Parameters of the non-local part of the GTH pseudopotential:

                   l      r(l)      h(i,j,l)

                   0    0.435634    8.951742   -2.706271
                                   -2.706271    3.493781
                   1    0.497942    2.431277


 MOLECULE KIND INFORMATION


 All atoms are their own molecule, skipping detailed information


 TOTAL NUMBERS AND MAXIMUM NUMBERS

  Total number of            - Atomic kinds:                                   1
                             - Atoms:                                        128
                             - Shell sets:                                   128
                             - Shells:                                       640
                             - Primitive Cartesian functions:                512
                             - Cartesian basis functions:                   1792
                             - Spherical basis functions:                   1664

  Maximum angular momentum of- Orbital basis functions:                        2
                             - Local part of the GTH pseudopotential:          0
                             - Non-local part of the GTH pseudopotential:      2

  AUX_FIT ADMM-Basis: 
  Total number of            - Shell sets:                                   640
                             - Shells:                                       640
                             - Primitive Cartesian functions:                896
                             - Cartesian basis functions:                   1792
                             - Spherical basis functions:                   1664
                               Maximum angular momentum                        2


 MODULE QUICKSTEP: ATOMIC COORDINATES IN ANGSTROM

   Atom Kind Element         X             Y             Z       Z(eff)     Mass
      1    1 Si   14      0.000000      0.000000      0.000000   4.0000  28.0855
      2    1 Si   14      0.000000      2.715500      2.715500   4.0000  28.0855
      3    1 Si   14      2.715500      0.000000      2.715500   4.0000  28.0855
      4    1 Si   14      2.715500      2.715500      0.000000   4.0000  28.0855
      5    1 Si   14      1.357750      1.357750      1.357750   4.0000  28.0855
      6    1 Si   14      1.357750      4.073250      4.073250   4.0000  28.0855
      7    1 Si   14      4.073250      1.357750      4.073250   4.0000  28.0855
      8    1 Si   14      4.073250      4.073250      1.357750   4.0000  28.0855
      9    1 Si   14      0.000000      0.000000      5.431000   4.0000  28.0855
     10    1 Si   14      0.000000      2.715500      8.146500   4.0000  28.0855
     11    1 Si   14      2.715500      0.000000      8.146500   4.0000  28.0855
     12    1 Si   14      2.715500      2.715500      5.431000   4.0000  28.0855
     13    1 Si   14      1.357750      1.357750      6.788750   4.0000  28.0855
     14    1 Si   14      1.357750      4.073250      9.504250   4.0000  28.0855
     15    1 Si   14      4.073250      1.357750      9.504250   4.0000  28.0855
     16    1 Si   14      4.073250      4.073250      6.788750   4.0000  28.0855
     17    1 Si   14      0.000000      5.431000      0.000000   4.0000  28.0855
     18    1 Si   14      0.000000      8.146500      2.715500   4.0000  28.0855
     19    1 Si   14      2.715500      5.431000      2.715500   4.0000  28.0855
     20    1 Si   14      2.715500      8.146500      0.000000   4.0000  28.0855
     21    1 Si   14      1.357750      6.788750      1.357750   4.0000  28.0855
     22    1 Si   14      1.357750      9.504250      4.073250   4.0000  28.0855
     23    1 Si   14      4.073250      6.788750      4.073250   4.0000  28.0855
     24    1 Si   14      4.073250      9.504250      1.357750   4.0000  28.0855
     25    1 Si   14      0.000000      5.431000      5.431000   4.0000  28.0855
     26    1 Si   14      0.000000      8.146500      8.146500   4.0000  28.0855
     27    1 Si   14      2.715500      5.431000      8.146500   4.0000  28.0855
     28    1 Si   14      2.715500      8.146500      5.431000   4.0000  28.0855
     29    1 Si   14      1.357750      6.788750      6.788750   4.0000  28.0855
     30    1 Si   14      1.357750      9.504250      9.504250   4.0000  28.0855
     31    1 Si   14      4.073250      6.788750      9.504250   4.0000  28.0855
     32    1 Si   14      4.073250      9.504250      6.788750   4.0000  28.0855
     33    1 Si   14      5.431000      0.000000      0.000000   4.0000  28.0855
     34    1 Si   14      5.431000      2.715500      2.715500   4.0000  28.0855
     35    1 Si   14      8.146500      0.000000      2.715500   4.0000  28.0855
     36    1 Si   14      8.146500      2.715500      0.000000   4.0000  28.0855
     37    1 Si   14      6.788750      1.357750      1.357750   4.0000  28.0855
     38    1 Si   14      6.788750      4.073250      4.073250   4.0000  28.0855
     39    1 Si   14      9.504250      1.357750      4.073250   4.0000  28.0855
     40    1 Si   14      9.504250      4.073250      1.357750   4.0000  28.0855
     41    1 Si   14      5.431000      0.000000      5.431000   4.0000  28.0855
     42    1 Si   14      5.431000      2.715500      8.146500   4.0000  28.0855
     43    1 Si   14      8.146500      0.000000      8.146500   4.0000  28.0855
     44    1 Si   14      8.146500      2.715500      5.431000   4.0000  28.0855
     45    1 Si   14      6.788750      1.357750      6.788750   4.0000  28.0855
     46    1 Si   14      6.788750      4.073250      9.504250   4.0000  28.0855
     47    1 Si   14      9.504250      1.357750      9.504250   4.0000  28.0855
     48    1 Si   14      9.504250      4.073250      6.788750   4.0000  28.0855
     49    1 Si   14      5.431000      5.431000      0.000000   4.0000  28.0855
     50    1 Si   14      5.431000      8.146500      2.715500   4.0000  28.0855
     51    1 Si   14      8.146500      5.431000      2.715500   4.0000  28.0855
     52    1 Si   14      8.146500      8.146500      0.000000   4.0000  28.0855
     53    1 Si   14      6.788750      6.788750      1.357750   4.0000  28.0855
     54    1 Si   14      6.788750      9.504250      4.073250   4.0000  28.0855
     55    1 Si   14      9.504250      6.788750      4.073250   4.0000  28.0855
     56    1 Si   14      9.504250      9.504250      1.357750   4.0000  28.0855
     57    1 Si   14      5.431000      5.431000      5.431000   4.0000  28.0855
     58    1 Si   14      5.431000      8.146500      8.146500   4.0000  28.0855
     59    1 Si   14      8.146500      5.431000      8.146500   4.0000  28.0855
     60    1 Si   14      8.146500      8.146500      5.431000   4.0000  28.0855
     61    1 Si   14      6.788750      6.788750      6.788750   4.0000  28.0855
     62    1 Si   14      6.788750      9.504250      9.504250   4.0000  28.0855
     63    1 Si   14      9.504250      6.788750      9.504250   4.0000  28.0855
     64    1 Si   14      9.504250      9.504250      6.788750   4.0000  28.0855
     65    1 Si   14     10.862000      0.000000      0.000000   4.0000  28.0855
     66    1 Si   14     10.862000      2.715500      2.715500   4.0000  28.0855
     67    1 Si   14     13.577500      0.000000      2.715500   4.0000  28.0855
     68    1 Si   14     13.577500      2.715500      0.000000   4.0000  28.0855
     69    1 Si   14     12.219750      1.357750      1.357750   4.0000  28.0855
     70    1 Si   14     12.219750      4.073250      4.073250   4.0000  28.0855
     71    1 Si   14     14.935250      1.357750      4.073250   4.0000  28.0855
     72    1 Si   14     14.935250      4.073250      1.357750   4.0000  28.0855
     73    1 Si   14     10.862000      0.000000      5.431000   4.0000  28.0855
     74    1 Si   14     10.862000      2.715500      8.146500   4.0000  28.0855
     75    1 Si   14     13.577500      0.000000      8.146500   4.0000  28.0855
     76    1 Si   14     13.577500      2.715500      5.431000   4.0000  28.0855
     77    1 Si   14     12.219750      1.357750      6.788750   4.0000  28.0855
     78    1 Si   14     12.219750      4.073250      9.504250   4.0000  28.0855
     79    1 Si   14     14.935250      1.357750      9.504250   4.0000  28.0855
     80    1 Si   14     14.935250      4.073250      6.788750   4.0000  28.0855
     81    1 Si   14     10.862000      5.431000      0.000000   4.0000  28.0855
     82    1 Si   14     10.862000      8.146500      2.715500   4.0000  28.0855
     83    1 Si   14     13.577500      5.431000      2.715500   4.0000  28.0855
     84    1 Si   14     13.577500      8.146500      0.000000   4.0000  28.0855
     85    1 Si   14     12.219750      6.788750      1.357750   4.0000  28.0855
     86    1 Si   14     12.219750      9.504250      4.073250   4.0000  28.0855
     87    1 Si   14     14.935250      6.788750      4.073250   4.0000  28.0855
     88    1 Si   14     14.935250      9.504250      1.357750   4.0000  28.0855
     89    1 Si   14     10.862000      5.431000      5.431000   4.0000  28.0855
     90    1 Si   14     10.862000      8.146500      8.146500   4.0000  28.0855
     91    1 Si   14     13.577500      5.431000      8.146500   4.0000  28.0855
     92    1 Si   14     13.577500      8.146500      5.431000   4.0000  28.0855
     93    1 Si   14     12.219750      6.788750      6.788750   4.0000  28.0855
     94    1 Si   14     12.219750      9.504250      9.504250   4.0000  28.0855
     95    1 Si   14     14.935250      6.788750      9.504250   4.0000  28.0855
     96    1 Si   14     14.935250      9.504250      6.788750   4.0000  28.0855
     97    1 Si   14     16.293000      0.000000      0.000000   4.0000  28.0855
     98    1 Si   14     16.293000      2.715500      2.715500   4.0000  28.0855
     99    1 Si   14     19.008500      0.000000      2.715500   4.0000  28.0855
    100    1 Si   14     19.008500      2.715500      0.000000   4.0000  28.0855
    101    1 Si   14     17.650750      1.357750      1.357750   4.0000  28.0855
    102    1 Si   14     17.650750      4.073250      4.073250   4.0000  28.0855
    103    1 Si   14     20.366250      1.357750      4.073250   4.0000  28.0855
    104    1 Si   14     20.366250      4.073250      1.357750   4.0000  28.0855
    105    1 Si   14     16.293000      0.000000      5.431000   4.0000  28.0855
    106    1 Si   14     16.293000      2.715500      8.146500   4.0000  28.0855
    107    1 Si   14     19.008500      0.000000      8.146500   4.0000  28.0855
    108    1 Si   14     19.008500      2.715500      5.431000   4.0000  28.0855
    109    1 Si   14     17.650750      1.357750      6.788750   4.0000  28.0855
    110    1 Si   14     17.650750      4.073250      9.504250   4.0000  28.0855
    111    1 Si   14     20.366250      1.357750      9.504250   4.0000  28.0855
    112    1 Si   14     20.366250      4.073250      6.788750   4.0000  28.0855
    113    1 Si   14     16.293000      5.431000      0.000000   4.0000  28.0855
    114    1 Si   14     16.293000      8.146500      2.715500   4.0000  28.0855
    115    1 Si   14     19.008500      5.431000      2.715500   4.0000  28.0855
    116    1 Si   14     19.008500      8.146500      0.000000   4.0000  28.0855
    117    1 Si   14     17.650750      6.788750      1.357750   4.0000  28.0855
    118    1 Si   14     17.650750      9.504250      4.073250   4.0000  28.0855
    119    1 Si   14     20.366250      6.788750      4.073250   4.0000  28.0855
    120    1 Si   14     20.366250      9.504250      1.357750   4.0000  28.0855
    121    1 Si   14     16.293000      5.431000      5.431000   4.0000  28.0855
    122    1 Si   14     16.293000      8.146500      8.146500   4.0000  28.0855
    123    1 Si   14     19.008500      5.431000      8.146500   4.0000  28.0855
    124    1 Si   14     19.008500      8.146500      5.431000   4.0000  28.0855
    125    1 Si   14     17.650750      6.788750      6.788750   4.0000  28.0855
    126    1 Si   14     17.650750      9.504250      9.504250   4.0000  28.0855
    127    1 Si   14     20.366250      6.788750      9.504250   4.0000  28.0855
    128    1 Si   14     20.366250      9.504250      6.788750   4.0000  28.0855



 SCF PARAMETERS         Density guess:                                    ATOMIC
                        --------------------------------------------------------
                        max_scf:                                              50
                        max_scf_history:                                       0
                        max_diis:                                              4
                        --------------------------------------------------------
                        eps_scf:                                        1.00E-06
                        eps_scf_history:                                0.00E+00
                        eps_diis:                                       1.00E-01
                        eps_eigval:                                     1.00E-05
                        --------------------------------------------------------
                        level_shift [a.u.]:                             0.000000
                        --------------------------------------------------------
                        Outer loop SCF in use 
                        No variables optimised in outer loop
                        eps_scf                                         1.00E-06
                        max_scf                                               50
                        No outer loop optimization
                        step_size                                       5.00E-01

 PW_GRID| Information for grid number                                          1
 PW_GRID| Grid distributed over                                    32 processors
 PW_GRID| Real space group dimensions                                    32    1
 PW_GRID| the grid is blocked:                                                NO
 PW_GRID| Cutoff [a.u.]                                                    300.0
 PW_GRID| spherical cutoff:                                                   NO
 PW_GRID|   Bounds   1           -162     161                Points:         324
 PW_GRID|   Bounds   2            -81      80                Points:         162
 PW_GRID|   Bounds   3            -81      80                Points:         162
 PW_GRID| Volume element (a.u.^3)  0.2034E-02     Volume (a.u.^3)     17296.4111
 PW_GRID| Grid span                                                    FULLSPACE
 PW_GRID|   Distribution                         Average         Max         Min
 PW_GRID|   G-Vectors                           265720.5      266004      265680
 PW_GRID|   G-Rays                                 820.1         821         820
 PW_GRID|   Real Space Points                   265720.5      288684      262440

 PW_GRID| Information for grid number                                          2
 PW_GRID| Number of the reference grid                                         1
 PW_GRID| Grid distributed over                                    32 processors
 PW_GRID| Real space group dimensions                                    32    1
 PW_GRID| the grid is blocked:                                                NO
 PW_GRID| Cutoff [a.u.]                                                    100.0
 PW_GRID| spherical cutoff:                                                   NO
 PW_GRID|   Bounds   1            -96      95                Points:         192
 PW_GRID|   Bounds   2            -48      47                Points:          96
 PW_GRID|   Bounds   3            -48      47                Points:          96
 PW_GRID| Volume element (a.u.^3)  0.9775E-02     Volume (a.u.^3)     17296.4111
 PW_GRID| Grid span                                                    FULLSPACE
 PW_GRID|   Distribution                         Average         Max         Min
 PW_GRID|   G-Vectors                            55296.0       55872       54912
 PW_GRID|   G-Rays                                 288.0         291         286
 PW_GRID|   Real Space Points                    55296.0       55296       55296

 PW_GRID| Information for grid number                                          3
 PW_GRID| Number of the reference grid                                         1
 PW_GRID| Grid distributed over                                    32 processors
 PW_GRID| Real space group dimensions                                    32    1
 PW_GRID| the grid is blocked:                                                NO
 PW_GRID| Cutoff [a.u.]                                                     33.3
 PW_GRID| spherical cutoff:                                                   NO
 PW_GRID|   Bounds   1            -54      53                Points:         108
 PW_GRID|   Bounds   2            -27      26                Points:          54
 PW_GRID|   Bounds   3            -27      26                Points:          54
 PW_GRID| Volume element (a.u.^3)  0.5492E-01     Volume (a.u.^3)     17296.4111
 PW_GRID| Grid span                                                    FULLSPACE
 PW_GRID|   Distribution                         Average         Max         Min
 PW_GRID|   G-Vectors                             9841.5        9936        9720
 PW_GRID|   G-Rays                                  91.1          92          90
 PW_GRID|   Real Space Points                     9841.5       11664        8748

 PW_GRID| Information for grid number                                          4
 PW_GRID| Number of the reference grid                                         1
 PW_GRID| Grid distributed over                                    32 processors
 PW_GRID| Real space group dimensions                                    32    1
 PW_GRID| the grid is blocked:                                                NO
 PW_GRID| Cutoff [a.u.]                                                     11.1
 PW_GRID| spherical cutoff:                                                   NO
 PW_GRID|   Bounds   1            -32      31                Points:          64
 PW_GRID|   Bounds   2            -16      15                Points:          32
 PW_GRID|   Bounds   3            -16      15                Points:          32
 PW_GRID| Volume element (a.u.^3)  0.2639         Volume (a.u.^3)     17296.4111
 PW_GRID| Grid span                                                    FULLSPACE
 PW_GRID|   Distribution                         Average         Max         Min
 PW_GRID|   G-Vectors                             2048.0        2240        1920
 PW_GRID|   G-Rays                                  32.0          35          30
 PW_GRID|   Real Space Points                     2048.0        2048        2048

 POISSON| Solver                                                        PERIODIC
 POISSON| Periodicity                                                        XYZ

 RS_GRID| Information for grid number                                          1
 RS_GRID|   Bounds   1           -162     161                Points:         324
 RS_GRID|   Bounds   2            -81      80                Points:         162
 RS_GRID|   Bounds   3            -81      80                Points:         162
 RS_GRID| Real space distribution over                                  8 groups
 RS_GRID| Real space distribution along direction                              1
 RS_GRID| Border size                                                         29
 RS_GRID| Real space distribution over                                  4 groups
 RS_GRID| Real space distribution along direction                              3
 RS_GRID| Border size                                                         29
 RS_GRID|   Distribution                         Average         Max         Min
 RS_GRID|   Planes                                  98.5          99          98
 RS_GRID|   Distribution                         Average         Max         Min
 RS_GRID|   Planes                                  98.5          99          98

 RS_GRID| Information for grid number                                          2
 RS_GRID|   Bounds   1            -96      95                Points:         192
 RS_GRID|   Bounds   2            -48      47                Points:          96
 RS_GRID|   Bounds   3            -48      47                Points:          96
 RS_GRID| Real space distribution over                                  8 groups
 RS_GRID| Real space distribution along direction                              1
 RS_GRID| Border size                                                         26
 RS_GRID| Real space distribution over                                  4 groups
 RS_GRID| Real space distribution along direction                              3
 RS_GRID| Border size                                                         26
 RS_GRID|   Distribution                         Average         Max         Min
 RS_GRID|   Planes                                  76.0          76          76
 RS_GRID|   Distribution                         Average         Max         Min
 RS_GRID|   Planes                                  76.0          76          76

 RS_GRID| Information for grid number                                          3
 RS_GRID|   Bounds   1            -54      53                Points:         108
 RS_GRID|   Bounds   2            -27      26                Points:          54
 RS_GRID|   Bounds   3            -27      26                Points:          54
 RS_GRID| Real space fully replicated
 RS_GRID| Group size                                                           1

 RS_GRID| Information for grid number                                          4
 RS_GRID|   Bounds   1            -32      31                Points:          64
 RS_GRID|   Bounds   2            -16      15                Points:          32
 RS_GRID|   Bounds   3            -16      15                Points:          32
 RS_GRID| Real space fully replicated
 RS_GRID| Group size                                                           1

 *** WARNING in hfx_types.F:2091 :: Periodic Hartree Fock calculation   ***
 *** requested with the use of a truncated or shortrange potential. The ***
 *** cutoff radius is larger than half the minimal cell dimension. This ***
 *** may lead to unphysical total energies. Reduce the cutoff radius in ***
 *** order to avoid possible problems.                                  ***


  HFX_INFO| Replica ID:                                                        1
  HFX_INFO| FRACTION:                                               0.2500000000
  HFX_INFO| Interaction Potential:                                    SHORTRANGE
  HFX_INFO| Omega:                                                  0.1100000000
  HFX_INFO| Cutoff Radius [angstrom]:                              20.0467199179
  HFX_RI_INFO| RI metric:                                             SHORTRANGE
  HFX_RI_INFO| Omega:                                               0.1100000000
  HFX_RI_INFO| Cutoff Radius [angstrom]:                           20.0467199179
  HFX_RI_INFO| RI flavor:                                                    RHO
  HFX_RI_INFO| EPS_FILTER                                                1.0E-09
  HFX_RI_INFO| EPS_FILTER 2-center                                       1.0E-12
  HFX_RI_INFO| EPS_FILTER storage                                        1.0E-11
  HFX_RI_INFO| EPS_FILTER MO                                             1.0E-12
  HFX_RI_INFO| EPS_PGF_ORB                                               1.0E-06
  HFX_RI_INFO| EPS_SCHWARZ:                                              1.0E-10
  HFX_RI_INFO| EPS_SCHWARZ_FORCES:                                       1.0E-08
  HFX_RI_INFO| Minimum block size                                              4
  HFX_RI_INFO| MO block size                                                  64
  HFX_RI_INFO| Memory reduction factor                                         3

 Number of electrons:                                                        512
 Number of occupied orbitals:                                                256
 Number of molecular orbitals:                                               256

 Number of orbital functions:                                               1664
 Number of independent orbital functions:                                   1664

 Extrapolation method: initial_guess

 Atomic guess: The first density matrix is obtained in terms of atomic orbitals
               and electronic configurations assigned to each atomic kind

 Guess for atomic kind: Si

 Electronic structure
    Total number of core electrons                                         10.00
    Total number of valence electrons                                       4.00
    Total number of electrons                                              14.00
    Multiplicity                                                   not specified
    S   [  2.00  2.00] 2.00
    P   [  6.00] 2.00
 

 *******************************************************************************
                  Iteration          Convergence                     Energy [au]
 *******************************************************************************
                          1        0.526541E-01                  -3.659692963728
                          2        0.125823E-01                  -3.661785675622
                          3        0.408986E-04                  -3.661911567360
                          4        0.675570E-07                  -3.661911568709

 Energy components [Hartree]           Total Energy ::           -3.661911568709
                                        Band Energy ::           -0.941881516273
                                     Kinetic Energy ::            1.409736465412
                                   Potential Energy ::           -5.071648034121
                                      Virial (-V/T) ::            3.597585902439
                                        Core Energy ::           -5.690149137281
                                          XC Energy ::           -0.992569238249
                                     Coulomb Energy ::            3.020806806821
                       Total Pseudopotential Energy ::           -7.143143335066
                       Local Pseudopotential Energy ::           -8.006124475851
                    Nonlocal Pseudopotential Energy ::            0.862981140786
                                        Confinement ::            0.432577323720

 Orbital energies  State     L     Occupation   Energy[a.u.]          Energy[eV]

                       1     0          2.000      -0.357276           -9.721984
 
                       1     1          2.000      -0.113664           -3.092965
 

 Total Electron Density at R=0:                                         0.000026
 Re-scaling the density matrix to get the right number of electrons
                  # Electrons              Trace(P)               Scaling factor
                          512               512.000                        1.000


 SCF WAVEFUNCTION OPTIMIZATION

  ----------------------------------- OT ---------------------------------------
  Minimizer      : DIIS                : direct inversion
                                         in the iterative subspace
                                         using   7 DIIS vectors
                                         safer DIIS on
  Preconditioner : FULL_SINGLE_INVERSE : inversion of 
                                         H + eS - 2*(Sc)(c^T*H*c+const)(Sc)^T
  Precond_solver : DEFAULT
  stepsize       :    0.08000000                  energy_gap     :    0.05000000
  eps_taylor     :   0.10000E-15                  max_taylor     :             4
  ----------------------------------- OT ---------------------------------------

  Step     Update method      Time    Convergence         Total energy    Change
  ------------------------------------------------------------------------------
  MEMORY_INFO| Memory for 3-center HFX integrals (compressed):      40421.59 MiB
  MEMORY_INFO| Compression factor:                                          2.80

===================================================================================
=   BAD TERMINATION OF ONE OF YOUR APPLICATION PROCESSES
=   RANK 0 PID 1324083 RUNNING AT cu07
=   KILLED BY SIGNAL: 9 (Killed)
===================================================================================

===================================================================================
=   BAD TERMINATION OF ONE OF YOUR APPLICATION PROCESSES
=   RANK 1 PID 1324084 RUNNING AT cu07
=   KILLED BY SIGNAL: 9 (Killed)
===================================================================================

===================================================================================
=   BAD TERMINATION OF ONE OF YOUR APPLICATION PROCESSES
=   RANK 2 PID 1324085 RUNNING AT cu07
=   KILLED BY SIGNAL: 9 (Killed)
===================================================================================

===================================================================================
=   BAD TERMINATION OF ONE OF YOUR APPLICATION PROCESSES
=   RANK 3 PID 1324086 RUNNING AT cu07
=   KILLED BY SIGNAL: 9 (Killed)
===================================================================================

===================================================================================
=   BAD TERMINATION OF ONE OF YOUR APPLICATION PROCESSES
=   RANK 4 PID 1324087 RUNNING AT cu07
=   KILLED BY SIGNAL: 9 (Killed)
===================================================================================

===================================================================================
=   BAD TERMINATION OF ONE OF YOUR APPLICATION PROCESSES
=   RANK 5 PID 1324088 RUNNING AT cu07
=   KILLED BY SIGNAL: 9 (Killed)
===================================================================================

===================================================================================
=   BAD TERMINATION OF ONE OF YOUR APPLICATION PROCESSES
=   RANK 6 PID 1324089 RUNNING AT cu07
=   KILLED BY SIGNAL: 9 (Killed)
===================================================================================

===================================================================================
=   BAD TERMINATION OF ONE OF YOUR APPLICATION PROCESSES
=   RANK 7 PID 1324090 RUNNING AT cu07
=   KILLED BY SIGNAL: 9 (Killed)
===================================================================================

===================================================================================
=   BAD TERMINATION OF ONE OF YOUR APPLICATION PROCESSES
=   RANK 8 PID 1324091 RUNNING AT cu07
=   KILLED BY SIGNAL: 9 (Killed)
===================================================================================

===================================================================================
=   BAD TERMINATION OF ONE OF YOUR APPLICATION PROCESSES
=   RANK 9 PID 1324092 RUNNING AT cu07
=   KILLED BY SIGNAL: 9 (Killed)
===================================================================================

===================================================================================
=   BAD TERMINATION OF ONE OF YOUR APPLICATION PROCESSES
=   RANK 10 PID 1324093 RUNNING AT cu07
=   KILLED BY SIGNAL: 9 (Killed)
===================================================================================

===================================================================================
=   BAD TERMINATION OF ONE OF YOUR APPLICATION PROCESSES
=   RANK 11 PID 1324094 RUNNING AT cu07
=   KILLED BY SIGNAL: 9 (Killed)
===================================================================================

===================================================================================
=   BAD TERMINATION OF ONE OF YOUR APPLICATION PROCESSES
=   RANK 12 PID 1324095 RUNNING AT cu07
=   KILLED BY SIGNAL: 9 (Killed)
===================================================================================

===================================================================================
=   BAD TERMINATION OF ONE OF YOUR APPLICATION PROCESSES
=   RANK 13 PID 1324096 RUNNING AT cu07
=   KILLED BY SIGNAL: 9 (Killed)
===================================================================================

===================================================================================
=   BAD TERMINATION OF ONE OF YOUR APPLICATION PROCESSES
=   RANK 14 PID 1324097 RUNNING AT cu07
=   KILLED BY SIGNAL: 9 (Killed)
===================================================================================

===================================================================================
=   BAD TERMINATION OF ONE OF YOUR APPLICATION PROCESSES
=   RANK 15 PID 1324098 RUNNING AT cu07
=   KILLED BY SIGNAL: 9 (Killed)
===================================================================================

===================================================================================
=   BAD TERMINATION OF ONE OF YOUR APPLICATION PROCESSES
=   RANK 16 PID 1324099 RUNNING AT cu07
=   KILLED BY SIGNAL: 9 (Killed)
===================================================================================

===================================================================================
=   BAD TERMINATION OF ONE OF YOUR APPLICATION PROCESSES
=   RANK 17 PID 1324100 RUNNING AT cu07
=   KILLED BY SIGNAL: 9 (Killed)
===================================================================================

===================================================================================
=   BAD TERMINATION OF ONE OF YOUR APPLICATION PROCESSES
=   RANK 18 PID 1324101 RUNNING AT cu07
=   KILLED BY SIGNAL: 9 (Killed)
===================================================================================

===================================================================================
=   BAD TERMINATION OF ONE OF YOUR APPLICATION PROCESSES
=   RANK 19 PID 1324102 RUNNING AT cu07
=   KILLED BY SIGNAL: 9 (Killed)
===================================================================================

===================================================================================
=   BAD TERMINATION OF ONE OF YOUR APPLICATION PROCESSES
=   RANK 20 PID 1324103 RUNNING AT cu07
=   KILLED BY SIGNAL: 9 (Killed)
===================================================================================

===================================================================================
=   BAD TERMINATION OF ONE OF YOUR APPLICATION PROCESSES
=   RANK 21 PID 1324104 RUNNING AT cu07
=   KILLED BY SIGNAL: 9 (Killed)
===================================================================================

===================================================================================
=   BAD TERMINATION OF ONE OF YOUR APPLICATION PROCESSES
=   RANK 22 PID 1324105 RUNNING AT cu07
=   KILLED BY SIGNAL: 9 (Killed)
===================================================================================

===================================================================================
=   BAD TERMINATION OF ONE OF YOUR APPLICATION PROCESSES
=   RANK 23 PID 1324106 RUNNING AT cu07
=   KILLED BY SIGNAL: 9 (Killed)
===================================================================================

===================================================================================
=   BAD TERMINATION OF ONE OF YOUR APPLICATION PROCESSES
=   RANK 24 PID 1324107 RUNNING AT cu07
=   KILLED BY SIGNAL: 9 (Killed)
===================================================================================

===================================================================================
=   BAD TERMINATION OF ONE OF YOUR APPLICATION PROCESSES
=   RANK 25 PID 1324108 RUNNING AT cu07
=   KILLED BY SIGNAL: 9 (Killed)
===================================================================================

===================================================================================
=   BAD TERMINATION OF ONE OF YOUR APPLICATION PROCESSES
=   RANK 26 PID 1324109 RUNNING AT cu07
=   KILLED BY SIGNAL: 9 (Killed)
===================================================================================

===================================================================================
=   BAD TERMINATION OF ONE OF YOUR APPLICATION PROCESSES
=   RANK 27 PID 1324110 RUNNING AT cu07
=   KILLED BY SIGNAL: 9 (Killed)
===================================================================================

===================================================================================
=   BAD TERMINATION OF ONE OF YOUR APPLICATION PROCESSES
=   RANK 28 PID 1324111 RUNNING AT cu07
=   KILLED BY SIGNAL: 9 (Killed)
===================================================================================

===================================================================================
=   BAD TERMINATION OF ONE OF YOUR APPLICATION PROCESSES
=   RANK 29 PID 1324112 RUNNING AT cu07
=   KILLED BY SIGNAL: 9 (Killed)
===================================================================================

===================================================================================
=   BAD TERMINATION OF ONE OF YOUR APPLICATION PROCESSES
=   RANK 30 PID 1324113 RUNNING AT cu07
=   KILLED BY SIGNAL: 9 (Killed)
===================================================================================

===================================================================================
=   BAD TERMINATION OF ONE OF YOUR APPLICATION PROCESSES
=   RANK 31 PID 1324114 RUNNING AT cu07
=   KILLED BY SIGNAL: 9 (Killed)
===================================================================================
