    2    2    1    1
  0.9373911E+01  0.2981869E-09  0.2981869E-09  0.2981869E-09  0.5000000E-15
  1.000000000000000E-004
  CAR 
 MgO-HSE06-k333-vasp  (HSE06)            
     14      4     16
 
  0.0000000E+00  0.0000000E+00  0.0000000E+00  0.3703704E-01
    1      -40.105169   1.000000
    2      -40.105168   1.000000
    3      -40.105167   1.000000
    4      -17.232795   1.000000
    5        1.547085   1.000000
    6        1.547095   1.000000
    7        1.547100   1.000000
    8        8.051693   0.000000
    9       19.295195   0.000000
   10       19.295196   0.000000
   11       19.295198   0.000000
   12       23.196348   0.000000
   13       25.168510   0.000000
   14       25.168512   0.000000
   15       28.241593   0.000000
   16       28.241648   0.000000
 
  0.3333333E+00  0.0000000E+00  0.0000000E+00  0.2962963E+00
    1      -40.168434   1.000000
    2      -40.110875   1.000000
    3      -40.110874   1.000000
    4      -16.238169   1.000000
    5       -2.323105   1.000000
    6        1.006730   1.000000
    7        1.006739   1.000000
    8       11.057535   0.000000
    9       15.962473   0.000000
   10       20.162452   0.000000
   11       20.162486   0.000000
   12       24.638702   0.000000
   13       24.638715   0.000000
   14       25.148789   0.000000
   15       33.066961   0.000000
   16       34.119217   0.000000
 
  0.3333333E+00  0.3333333E+00  0.0000000E+00  0.2222222E+00
    1      -40.160001   1.000000
    2      -40.125964   1.000000
    3      -40.125963   1.000000
    4      -16.022197   1.000000
    5       -2.076261   1.000000
    6        0.415657   1.000000
    7        0.415665   1.000000
    8       12.810552   0.000000
    9       13.354798   0.000000
   10       17.509864   0.000000
   11       22.069578   0.000000
   12       22.069592   0.000000
   13       28.474921   0.000000
   14       31.035085   0.000000
   15       33.152515   0.000000
   16       33.152525   0.000000
 
 -0.3333333E+00  0.3333333E+00  0.0000000E+00  0.4444444E+00
    1      -40.159843   1.000000
    2      -40.155527   1.000000
    3      -40.121653   1.000000
    4      -15.626267   1.000000
    5       -1.857017   1.000000
    6       -1.690144   1.000000
    7        0.472158   1.000000
    8       13.755037   0.000000
    9       15.853606   0.000000
   10       16.144918   0.000000
   11       21.553578   0.000000
   12       22.525659   0.000000
   13       26.848261   0.000000
   14       31.433143   0.000000
   15       32.150683   0.000000
   16       32.967585   0.000000
