       N       E                     dE             d eps       ncg     rms          ort
SDA:   1    -0.141290800726E+02   -0.14129E+02   -0.22569E-01    64   0.564E-01 0.000E+00
DMP:   2    -0.141466786230E+02   -0.17599E-01   -0.13755E-01    64   0.223E-01 0.317E-01
DMP:   3    -0.141566596675E+02   -0.99810E-02   -0.61438E-02    64   0.939E-02 0.156E-01
DMP:   4    -0.141613120707E+02   -0.46524E-02   -0.29730E-02    64   0.438E-02 0.800E-02
DMP:   5    -0.141635641951E+02   -0.22521E-02   -0.12409E-02    64   0.162E-02 0.389E-02
DMP:   6    -0.141645045328E+02   -0.94034E-03   -0.52058E-03    64   0.681E-03 0.163E-02
DMP:   7    -0.141649109731E+02   -0.40644E-03   -0.23579E-03    64   0.307E-03 0.741E-03
DMP:   8    -0.141650955352E+02   -0.18456E-03   -0.10266E-03    64   0.127E-03 0.340E-03
DMP:   9    -0.141651753816E+02   -0.79846E-04   -0.45479E-04    64   0.564E-04 0.150E-03
DMP:  10    -0.141652104309E+02   -0.35049E-04   -0.19640E-04    64   0.230E-04 0.683E-04
DMP:  11    -0.141652250945E+02   -0.14664E-04   -0.78725E-05    64   0.879E-05 0.285E-04
DMP:  12    -0.141652308519E+02   -0.57574E-05   -0.31853E-05    64   0.356E-05 0.115E-04
DMP:  13    -0.141652330618E+02   -0.22099E-05   -0.12849E-05    64   0.142E-05 0.470E-05
DMP:  14    -0.141652338643E+02   -0.80256E-06   -0.52517E-06    64   0.586E-06 0.190E-05
   1 F= -.14165234E+02 E0= -.14165234E+02  d E =-.121687E-29
