<?xml version="1.0" encoding="ISO-8859-1"?>
<modeling>
 <generator>
  <i name="program" type="string">vasp </i>
  <i name="version" type="string">5.4.4.18Apr17-6-g9f103f2a35  </i>
  <i name="subversion" type="string">(build Mar 10 2026 18:13:51) complex            parallel </i>
  <i name="platform" type="string">LinuxIFC </i>
  <i name="date" type="string">2026 06 25 </i>
  <i name="time" type="string">14:54:24 </i>
 </generator>
 <incar>
  <i type="string" name="SYSTEM"> MgO-HSE06-k333-vasp  (HSE06)</i>
  <i type="int" name="ISTART">     1</i>
  <i type="string" name="PREC">accurate</i>
  <i type="string" name="ALGO"> Damped</i>
  <i type="int" name="ICHARG">     0</i>
  <i type="int" name="NELM">   120</i>
  <i name="EDIFF">      0.00000100</i>
  <i name="ENCUT">    530.00000000</i>
  <i type="logical" name="LREAL"> F  </i>
  <i name="TIME">      0.40000000</i>
  <i type="int" name="ISMEAR">     0</i>
  <i name="SIGMA">      0.05000000</i>
  <i type="logical" name="LWAVE"> F  </i>
  <i type="logical" name="LCHARG"> F  </i>
  <v type="int" name="KPOINT_BSE">    -1     0     0     0</v>
  <i type="int" name="NELM">   120</i>
  <i type="logical" name="LHFCALC"> T  </i>
  <i name="HFSCREEN">      0.20000000</i>
  <i name="AEXX">      0.25000000</i>
  <i type="string" name="PRECFOCK">fast</i>
 </incar>
 <structure name="primitive_cell" >
  <crystal>
   <varray name="basis" >
    <v>       0.00000000       2.10850000       2.10850000 </v>
    <v>       2.10850000       0.00000000       2.10850000 </v>
    <v>       2.10850000       2.10850000       0.00000000 </v>
   </varray>
   <i name="volume">     18.74782158 </i>
   <varray name="rec_basis" >
    <v>      -0.23713540       0.23713540       0.23713540 </v>
    <v>       0.23713540      -0.23713540       0.23713540 </v>
    <v>       0.23713540       0.23713540      -0.23713540 </v>
   </varray>
  </crystal>
  <varray name="positions" >
   <v>       0.00000000       0.00000000       0.00000000 </v>
   <v>      -0.50000000      -0.50000000      -0.50000000 </v>
  </varray>
 </structure>
 <varray name="primitive_index" >
  <v type="int" >        1 </v>
  <v type="int" >        2 </v>
 </varray>
 <kpoints>
  <generation param="Gamma">
   <v type="int" name="divisions">       3        3        3 </v>
   <v name="usershift">      0.00000000       0.00000000       0.00000000 </v>
   <v name="genvec1">      0.33333333       0.00000000       0.00000000 </v>
   <v name="genvec2">      0.00000000       0.33333333       0.00000000 </v>
   <v name="genvec3">      0.00000000       0.00000000       0.33333333 </v>
   <v name="shift">      0.00000000       0.00000000       0.00000000 </v>
  </generation>
  <varray name="kpointlist" >
   <v>       0.00000000       0.00000000       0.00000000 </v>
   <v>       0.33333333       0.00000000       0.00000000 </v>
   <v>       0.33333333       0.33333333       0.00000000 </v>
   <v>      -0.33333333       0.33333333       0.00000000 </v>
  </varray>
  <varray name="weights" >
   <v>       0.03703704 </v>
   <v>       0.29629630 </v>
   <v>       0.22222222 </v>
   <v>       0.44444444 </v>
  </varray>
 </kpoints>
 <parameters>
  <separator name="general" >
   <i type="string" name="SYSTEM">MgO-HSE06-k333-vasp  (HSE06)</i>
   <i type="logical" name="LCOMPAT"> F  </i>
  </separator>
  <separator name="electronic" >
   <i type="string" name="PREC">accura</i>
   <i name="ENMAX">    530.00000000</i>
   <i name="ENAUG">    758.78000000</i>
   <i name="EDIFF">      0.00000100</i>
   <i type="int" name="IALGO">    53</i>
   <i type="int" name="IWAVPR">    10</i>
   <i type="int" name="NBANDS">    16</i>
   <i name="NELECT">     14.00000000</i>
   <i type="int" name="TURBO">     0</i>
   <i type="int" name="IRESTART">     0</i>
   <i type="int" name="NREBOOT">     0</i>
   <i type="int" name="NMIN">     0</i>
   <i name="EREF">      0.00000000</i>
   <separator name="electronic smearing" >
    <i type="int" name="ISMEAR">     0</i>
    <i name="SIGMA">      0.05000000</i>
    <i name="KSPACING">      0.50000000</i>
    <i type="logical" name="KGAMMA"> T  </i>
   </separator>
   <separator name="electronic projectors" >
    <i type="logical" name="LREAL"> F  </i>
    <v name="ROPT">      0.00000000      0.00000000</v>
    <i type="int" name="LMAXPAW">  -100</i>
    <i type="int" name="LMAXMIX">     2</i>
    <i type="logical" name="NLSPLINE"> F  </i>
   </separator>
   <separator name="electronic startup" >
    <i type="int" name="ISTART">     1</i>
    <i type="int" name="ICHARG">     0</i>
    <i type="int" name="INIWAV">     1</i>
   </separator>
   <separator name="electronic spin" >
    <i type="int" name="ISPIN">     1</i>
    <i type="logical" name="LNONCOLLINEAR"> F  </i>
    <v name="MAGMOM">      1.00000000      1.00000000</v>
    <i name="NUPDOWN">     -1.00000000</i>
    <i type="logical" name="LSORBIT"> F  </i>
    <v name="SAXIS">      0.00000000      0.00000000      1.00000000</v>
    <i type="logical" name="LSPIRAL"> F  </i>
    <v name="QSPIRAL">      0.00000000      0.00000000      0.00000000</v>
    <i type="logical" name="LZEROZ"> F  </i>
   </separator>
   <separator name="electronic exchange-correlation" >
    <i type="logical" name="LASPH"> F  </i>
    <i type="logical" name="LMETAGGA"> F  </i>
   </separator>
   <separator name="electronic convergence" >
    <i type="int" name="NELM">   120</i>
    <i type="int" name="NELMDL">     0</i>
    <i type="int" name="NELMIN">     2</i>
    <i name="ENINI">    530.00000000</i>
    <separator name="electronic convergence detail" >
     <i type="logical" name="LDIAG"> T  </i>
     <i type="logical" name="LSUBROT"> F  </i>
     <i name="WEIMIN">      0.00000000</i>
     <i name="EBREAK">      0.00000002</i>
     <i name="DEPER">      0.30000000</i>
     <i type="int" name="NRMM">     4</i>
     <i name="TIME">      0.40000000</i>
    </separator>
   </separator>
   <separator name="electronic mixer" >
    <i name="AMIX">      0.40000000</i>
    <i name="BMIX">      1.00000000</i>
    <i name="AMIN">      0.10000000</i>
    <i name="AMIX_MAG">      1.60000000</i>
    <i name="BMIX_MAG">      1.00000000</i>
    <separator name="electronic mixer details" >
     <i type="int" name="IMIX">     4</i>
     <i type="logical" name="MIXFIRST"> F  </i>
     <i type="int" name="MAXMIX">   -45</i>
     <i name="WC">    100.00000000</i>
     <i type="int" name="INIMIX">     1</i>
     <i type="int" name="MIXPRE">     1</i>
     <i type="int" name="MREMOVE">     5</i>
    </separator>
   </separator>
   <separator name="electronic dipolcorrection" >
    <i type="logical" name="LDIPOL"> F  </i>
    <i type="logical" name="LMONO"> F  </i>
    <i type="int" name="IDIPOL">     0</i>
    <i name="EPSILON">      1.00000000</i>
    <v name="DIPOL">   -100.00000000   -100.00000000   -100.00000000</v>
    <i name="EFIELD">      0.00000000</i>
   </separator>
  </separator>
  <separator name="grids" >
   <i type="int" name="NGX">    24</i>
   <i type="int" name="NGY">    24</i>
   <i type="int" name="NGZ">    24</i>
   <i type="int" name="NGXF">    48</i>
   <i type="int" name="NGYF">    48</i>
   <i type="int" name="NGZF">    48</i>
   <i type="logical" name="ADDGRID"> F  </i>
  </separator>
  <separator name="ionic" >
   <i type="int" name="NSW">     0</i>
   <i type="int" name="IBRION">    -1</i>
   <i type="int" name="MDALGO">     0</i>
   <i type="int" name="ISIF">     0</i>
   <i name="PSTRESS">      0.00000000</i>
   <i name="EDIFFG">      0.00001000</i>
   <i type="int" name="NFREE">     0</i>
   <i name="POTIM">      0.50000000</i>
   <i name="SMASS">     -3.00000000</i>
   <i name="SCALEE">      1.00000000</i>
  </separator>
  <separator name="ionic md" >
   <i name="TEBEG">      0.00010000</i>
   <i name="TEEND">      0.00010000</i>
   <i type="int" name="NBLOCK">     1</i>
   <i type="int" name="KBLOCK">     1</i>
   <i type="int" name="NPACO">   256</i>
   <i name="APACO">     16.00000000</i>
  </separator>
  <separator name="symmetry" >
   <i type="int" name="ISYM">     3</i>
   <i name="SYMPREC">      0.00001000</i>
  </separator>
  <separator name="dos" >
   <i type="int" name="LORBIT">     0</i>
   <v name="RWIGS">     -1.00000000     -1.00000000</v>
   <i type="int" name="NEDOS">   301</i>
   <i name="EMIN">     10.00000000</i>
   <i name="EMAX">    -10.00000000</i>
   <i name="EFERMI">      0.00000000</i>
  </separator>
  <separator name="writing" >
   <i type="int" name="NWRITE">     2</i>
   <i type="logical" name="LWAVE"> F  </i>
   <i type="logical" name="LDOWNSAMPLE"> F  </i>
   <i type="logical" name="LCHARG"> F  </i>
   <i type="logical" name="LPARD"> F  </i>
   <i type="logical" name="LVTOT"> F  </i>
   <i type="logical" name="LVHAR"> F  </i>
   <i type="logical" name="LELF"> F  </i>
   <i type="logical" name="LOPTICS"> F  </i>
   <v name="STM">      0.00000000      0.00000000      0.00000000      0.00000000      0.00000000      0.00000000      0.00000000</v>
  </separator>
  <separator name="performance" >
   <i type="int" name="NPAR">     8</i>
   <i type="int" name="NSIM">     4</i>
   <i type="int" name="NBLK">    -1</i>
   <i type="logical" name="LPLANE"> T  </i>
   <i type="logical" name="LSCALAPACK"> T  </i>
   <i type="logical" name="LSCAAWARE"> F  </i>
   <i type="logical" name="LSCALU"> F  </i>
   <i type="logical" name="LASYNC"> F  </i>
   <i type="logical" name="LORBITALREAL"> F  </i>
  </separator>
  <separator name="miscellaneous" >
   <i type="int" name="IDIOT">     3</i>
   <i type="int" name="ISPECIAL">     0</i>
   <i type="logical" name="LMUSIC"> F  </i>
   <v name="POMASS">     24.30500000     16.00000000</v>
   <v name="DARWINR">      0.00000000      0.00000000</v>
   <v name="DARWINV">      1.00000000      1.00000000</v>
   <i type="logical" name="LCORR"> T  </i>
  </separator>
  <i type="logical" name="GGA_COMPAT"> T  </i>
  <i type="logical" name="LBERRY"> F  </i>
  <i type="int" name="ICORELEVEL">     0</i>
  <i type="logical" name="LDAU"> F  </i>
  <i type="int" name="I_CONSTRAINED_M">     0</i>
  <separator name="electronic exchange-correlation" >
   <i type="string" name="GGA">--</i>
   <i type="int" name="VOSKOWN">     0</i>
   <i type="logical" name="LHFCALC"> T  </i>
   <i type="string" name="PRECFOCK">fast</i>
   <i type="logical" name="LSYMGRAD"> F  </i>
   <i type="logical" name="LHFONE"> F  </i>
   <i type="logical" name="LRHFCALC"> F  </i>
   <i type="logical" name="LTHOMAS"> F  </i>
   <i type="logical" name="LMODELHF"> F  </i>
   <i name="ENCUT4O">     -1.00000000</i>
   <i type="int" name="EXXOEP">     0</i>
   <i type="int" name="FOURORBIT">     0</i>
   <i name="AEXX">      0.25000000</i>
   <i name="HFALPHA">     -1.00000000</i>
   <i name="MCALPHA">      0.00000000</i>
   <i name="ALDAX">      0.75000000</i>
   <i name="AGGAX">      0.75000000</i>
   <i name="ALDAC">      1.00000000</i>
   <i name="AGGAC">      1.00000000</i>
   <i type="int" name="NKREDX">     1</i>
   <i type="int" name="NKREDY">     1</i>
   <i type="int" name="NKREDZ">     1</i>
   <i type="logical" name="SHIFTRED"> F  </i>
   <i type="logical" name="ODDONLY"> F  </i>
   <i type="logical" name="EVENONLY"> F  </i>
   <i type="int" name="LMAXFOCK">     4</i>
   <i type="int" name="NMAXFOCKAE">     1</i>
   <i type="logical" name="LFOCKAEDFT"> F  </i>
   <i name="HFSCREEN">      0.20000000</i>
   <i name="HFSCREENC">      0.20000000</i>
   <i type="int" name="NBANDSGWLOW">     1</i>
  </separator>
  <separator name="vdW DFT" >
   <i type="logical" name="LUSE_VDW"> F  </i>
   <i name="Zab_VDW">     -0.84910000</i>
   <i name="PARAM1">      0.12340000</i>
   <i name="PARAM2">      1.00000000</i>
   <i name="PARAM3">      0.00000000</i>
  </separator>
  <separator name="model GW" >
   <i type="int" name="MODEL_GW">     0</i>
   <i name="MODEL_EPS0">      5.62434647</i>
   <i name="MODEL_ALPHA">      1.00000000</i>
  </separator>
  <separator name="linear response parameters" >
   <i type="logical" name="LEPSILON"> F  </i>
   <i type="logical" name="LRPA"> F  </i>
   <i type="logical" name="LNABLA"> F  </i>
   <i type="logical" name="LVEL"> F  </i>
   <i type="int" name="KINTER">     0</i>
   <i name="CSHIFT">      0.10000000</i>
   <i name="OMEGAMAX">     -1.00000000</i>
   <i name="DEG_THRESHOLD">      0.00200000</i>
   <i name="RTIME">     -0.10000000</i>
   <i name="WPLASMAI">      0.00000000</i>
   <v name="DFIELD">      0.00000000      0.00000000      0.00000000</v>
   <v name="WPLASMA">      0.00000000      0.00000000      0.00000000      0.00000000      0.00000000      0.00000000      0.00000000      0.00000000      0.00000000</v>
  </separator>
  <separator name="orbital magnetization" >
   <i type="logical" name="NUCIND"> F  </i>
   <v name="MAGPOS">      0.00000000      0.00000000      0.00000000</v>
   <i type="logical" name="LNICSALL"> T  </i>
   <i type="logical" name="ORBITALMAG"> F  </i>
   <i type="logical" name="LMAGBLOCH"> F  </i>
   <i type="logical" name="LCHIMAG"> F  </i>
   <i type="logical" name="LGAUGE"> T  </i>
   <i type="int" name="MAGATOM">     0</i>
   <v name="MAGDIPOL">      0.00000000      0.00000000      0.00000000</v>
   <v name="AVECCONST">      0.00000000      0.00000000      0.00000000</v>
  </separator>
  <separator name="response functions" >
   <i type="logical" name="LADDER"> F  </i>
   <i type="logical" name="LRPAFORCE"> F  </i>
   <i type="logical" name="LFXC"> F  </i>
   <i type="logical" name="LHARTREE"> T  </i>
   <i type="int" name="IBSE">     0</i>
   <v type="int" name="KPOINT">    -1     0     0     0</v>
   <i type="logical" name="LTCTE"> F  </i>
   <i type="logical" name="LTETE"> F  </i>
   <i type="logical" name="LTRIPLET"> F  </i>
   <i type="logical" name="LFXCEPS"> F  </i>
   <i type="logical" name="LFXHEG"> F  </i>
   <i type="int" name="NATURALO">     2</i>
   <i type="logical" name="L2ORDER"> F  </i>
   <i type="logical" name="LMP2LT"> F  </i>
   <i type="logical" name="LUSEW"> F  </i>
   <i name="ENCUTGW">     -2.00000000</i>
   <i name="ENCUTGWSOFT">     -2.00000000</i>
   <i name="ENCUTLF">     -1.00000000</i>
   <i type="int" name="LMAXMP2">    -1</i>
   <i name="SCISSOR">      0.00000000</i>
   <i type="int" name="NOMEGA">     0</i>
   <i type="int" name="NOMEGAR">     0</i>
   <i type="int" name="NBANDSGW">    -1</i>
   <i type="int" name="NBANDSO">    -1</i>
   <i type="int" name="NBANDSV">    -1</i>
   <i type="int" name="NELM">   120</i>
   <i type="int" name="NELMHF">     1</i>
   <i type="int" name="DIM">     3</i>
   <i type="int" name="ANTIRES">     0</i>
   <i name="OMEGAMAX">    -30.00000000</i>
   <i name="OMEGAMIN">    -30.00000000</i>
   <i name="OMEGATL">   -200.00000000</i>
   <i type="int" name="OMEGAGRID">   140</i>
   <i name="CSHIFT">     -0.10000000</i>
   <i type="logical" name="SELFENERGY"> F  </i>
   <i type="logical" name="LSPECTRAL"> F  </i>
   <i type="logical" name="LSPECTRALGW"> F  </i>
   <i type="logical" name="LSINGLES"> F  </i>
   <i type="logical" name="LFERMIGW"> F  </i>
   <i type="logical" name="ODDONLYGW"> F  </i>
   <i type="logical" name="EVENONLYGW"> F  </i>
   <i type="int" name="NKREDLFX">     1</i>
   <i type="int" name="NKREDLFY">     1</i>
   <i type="int" name="NKREDLFZ">     1</i>
   <i type="int" name="MAXMEM">  2800</i>
   <i type="int" name="TELESCOPE">     0</i>
   <i type="int" name="TAUPAR">     1</i>
   <i type="int" name="OMEGAPAR">    -1</i>
   <i name="LAMBDA">      1.00000000</i>
  </separator>
  <separator name="External order field" >
   <i name="OFIELD_KAPPA">      0.00000000</i>
   <v name="OFIELD_K">      0.00000000      0.00000000      0.00000000</v>
   <i name="OFIELD_Q6_NEAR">      0.00000000</i>
   <i name="OFIELD_Q6_FAR">      0.00000000</i>
   <i name="OFIELD_A">      0.00000000</i>
  </separator>
 </parameters>
 <atominfo>
  <atoms>       2 </atoms>
  <types>       2 </types>
  <array name="atoms" >
   <dimension dim="1">ion</dimension>
   <field type="string">element</field>
   <field type="int">atomtype</field>
   <set>
    <rc><c>Mg</c><c>   1</c></rc>
    <rc><c>O </c><c>   2</c></rc>
   </set>
  </array>
  <array name="atomtypes" >
   <dimension dim="1">type</dimension>
   <field type="int">atomspertype</field>
   <field type="string">element</field>
   <field>mass</field>
   <field>valence</field>
   <field type="string">pseudopotential</field>
   <set>
    <rc><c>   1</c><c>Mg</c><c>     24.30500000</c><c>      8.00000000</c><c>  PAW_PBE Mg_pv 13Apr2007               </c></rc>
    <rc><c>   1</c><c>O </c><c>     16.00000000</c><c>      6.00000000</c><c>  PAW_PBE O 08Apr2002                   </c></rc>
   </set>
  </array>
 </atominfo>
 <structure name="initialpos" >
  <crystal>
   <varray name="basis" >
    <v>       0.00000000       2.10850000       2.10850000 </v>
    <v>       2.10850000       0.00000000       2.10850000 </v>
    <v>       2.10850000       2.10850000       0.00000000 </v>
   </varray>
   <i name="volume">     18.74782158 </i>
   <varray name="rec_basis" >
    <v>      -0.23713540       0.23713540       0.23713540 </v>
    <v>       0.23713540      -0.23713540       0.23713540 </v>
    <v>       0.23713540       0.23713540      -0.23713540 </v>
   </varray>
  </crystal>
  <varray name="positions" >
   <v>       0.00000000       0.00000000       0.00000000 </v>
   <v>       0.50000000       0.50000000       0.50000000 </v>
  </varray>
 </structure>
 <calculation>
  <scstep>
   <time name="total">   21.05   21.37</time>
   <energy>
    <i name="alphaZ">     69.29119816 </i>
    <i name="ewald">   -961.40957381 </i>
    <i name="hartreedc">   -306.61279349 </i>
    <i name="XCdc">     42.84157693 </i>
    <i name="pawpsdc">   1110.04840103 </i>
    <i name="pawaedc">  -1221.66984858 </i>
    <i name="eentropy">     -0.00000000 </i>
    <i name="bandstr">   -276.50032116 </i>
    <i name="atom">   1485.84808162 </i>
    <i name="e_fr_energy">    -14.12908007 </i>
    <i name="e_wo_entrp">    -14.12908007 </i>
    <i name="e_0_energy">    -14.12908007 </i>
   </energy>
  </scstep>
  <scstep>
   <time name="total">   22.26   22.82</time>
   <energy>
    <i name="e_fr_energy">    -14.14667862 </i>
    <i name="e_wo_entrp">    -14.14667862 </i>
    <i name="e_0_energy">    -14.14667862 </i>
   </energy>
  </scstep>
  <scstep>
   <time name="total">   17.94   18.75</time>
   <energy>
    <i name="e_fr_energy">    -14.15665967 </i>
    <i name="e_wo_entrp">    -14.15665967 </i>
    <i name="e_0_energy">    -14.15665967 </i>
   </energy>
  </scstep>
  <scstep>
   <time name="total">   16.68   18.93</time>
   <energy>
    <i name="e_fr_energy">    -14.16131207 </i>
    <i name="e_wo_entrp">    -14.16131207 </i>
    <i name="e_0_energy">    -14.16131207 </i>
   </energy>
  </scstep>
  <scstep>
   <time name="total">   18.75   20.25</time>
   <energy>
    <i name="e_fr_energy">    -14.16356420 </i>
    <i name="e_wo_entrp">    -14.16356420 </i>
    <i name="e_0_energy">    -14.16356420 </i>
   </energy>
  </scstep>
  <scstep>
   <time name="total">    6.08    6.25</time>
   <energy>
    <i name="e_fr_energy">    -14.16450453 </i>
    <i name="e_wo_entrp">    -14.16450453 </i>
    <i name="e_0_energy">    -14.16450453 </i>
   </energy>
  </scstep>
  <scstep>
   <time name="total">    0.12    0.12</time>
   <energy>
    <i name="e_fr_energy">    -14.16491097 </i>
    <i name="e_wo_entrp">    -14.16491097 </i>
    <i name="e_0_energy">    -14.16491097 </i>
   </energy>
  </scstep>
  <scstep>
   <time name="total">    0.12    0.12</time>
   <energy>
    <i name="e_fr_energy">    -14.16509554 </i>
    <i name="e_wo_entrp">    -14.16509554 </i>
    <i name="e_0_energy">    -14.16509554 </i>
   </energy>
  </scstep>
  <scstep>
   <time name="total">    0.12    0.12</time>
   <energy>
    <i name="e_fr_energy">    -14.16517538 </i>
    <i name="e_wo_entrp">    -14.16517538 </i>
    <i name="e_0_energy">    -14.16517538 </i>
   </energy>
  </scstep>
  <scstep>
   <time name="total">    0.12    0.12</time>
   <energy>
    <i name="e_fr_energy">    -14.16521043 </i>
    <i name="e_wo_entrp">    -14.16521043 </i>
    <i name="e_0_energy">    -14.16521043 </i>
   </energy>
  </scstep>
  <scstep>
   <time name="total">    0.12    0.12</time>
   <energy>
    <i name="e_fr_energy">    -14.16522509 </i>
    <i name="e_wo_entrp">    -14.16522509 </i>
    <i name="e_0_energy">    -14.16522509 </i>
   </energy>
  </scstep>
  <scstep>
   <time name="total">    0.12    0.12</time>
   <energy>
    <i name="e_fr_energy">    -14.16523085 </i>
    <i name="e_wo_entrp">    -14.16523085 </i>
    <i name="e_0_energy">    -14.16523085 </i>
   </energy>
  </scstep>
  <scstep>
   <time name="total">    0.12    0.12</time>
   <energy>
    <i name="e_fr_energy">    -14.16523306 </i>
    <i name="e_wo_entrp">    -14.16523306 </i>
    <i name="e_0_energy">    -14.16523306 </i>
   </energy>
  </scstep>
  <scstep>
   <time name="total">    0.19    0.19</time>
   <energy>
    <i name="alphaZ">     69.29119816 </i>
    <i name="ewald">   -961.40957381 </i>
    <i name="hartreedc">   -307.30002044 </i>
    <i name="XCdc">     42.89885884 </i>
    <i name="pawpsdc">   1118.58864565 </i>
    <i name="pawaedc">  -1230.38085152 </i>
    <i name="eentropy">     -0.00000000 </i>
    <i name="bandstr">   -275.86253767 </i>
    <i name="atom">   1485.84808162 </i>
    <i name="e_fr_energy">    -14.16523386 </i>
    <i name="e_wo_entrp">    -14.16523386 </i>
    <i name="e_0_energy">    -14.16523386 </i>
   </energy>
  </scstep>
  <structure>
   <crystal>
    <varray name="basis" >
     <v>       0.00000000       2.10850000       2.10850000 </v>
     <v>       2.10850000       0.00000000       2.10850000 </v>
     <v>       2.10850000       2.10850000       0.00000000 </v>
    </varray>
    <i name="volume">     18.74782158 </i>
    <varray name="rec_basis" >
     <v>      -0.23713540       0.23713540       0.23713540 </v>
     <v>       0.23713540      -0.23713540       0.23713540 </v>
     <v>       0.23713540       0.23713540      -0.23713540 </v>
    </varray>
   </crystal>
   <varray name="positions" >
    <v>       0.00000000       0.00000000       0.00000000 </v>
    <v>       0.50000000       0.50000000       0.50000000 </v>
   </varray>
  </structure>
  <varray name="forces" >
   <v>       0.00000000       0.00000000       0.00000000 </v>
   <v>       0.00000000      -0.00000000      -0.00000000 </v>
  </varray>
  <energy>
   <i name="e_fr_energy">    -14.16523386 </i>
   <i name="e_wo_entrp">    -14.16523386 </i>
   <i name="e_0_energy">     -0.00000000 </i>
  </energy>
  <time name="totalsc">  103.99  109.60</time>
  <eigenvalues>
   <array>
    <dimension dim="1">band</dimension>
    <dimension dim="2">kpoint</dimension>
    <dimension dim="3">spin</dimension>
    <field>eigene</field>
    <field>occ</field>
    <set>
     <set comment="spin 1">
      <set comment="kpoint 1">
       <r>  -40.1052    1.0000 </r>
       <r>  -40.1052    1.0000 </r>
       <r>  -40.1052    1.0000 </r>
       <r>  -17.2328    1.0000 </r>
       <r>    1.5471    1.0000 </r>
       <r>    1.5471    1.0000 </r>
       <r>    1.5471    1.0000 </r>
       <r>    8.0517    0.0000 </r>
       <r>   19.2952    0.0000 </r>
       <r>   19.2952    0.0000 </r>
       <r>   19.2952    0.0000 </r>
       <r>   23.1963    0.0000 </r>
       <r>   25.1685    0.0000 </r>
       <r>   25.1685    0.0000 </r>
       <r>   28.2416    0.0000 </r>
       <r>   28.2416    0.0000 </r>
      </set>
      <set comment="kpoint 2">
       <r>  -40.1684    1.0000 </r>
       <r>  -40.1109    1.0000 </r>
       <r>  -40.1109    1.0000 </r>
       <r>  -16.2382    1.0000 </r>
       <r>   -2.3231    1.0000 </r>
       <r>    1.0067    1.0000 </r>
       <r>    1.0067    1.0000 </r>
       <r>   11.0575    0.0000 </r>
       <r>   15.9625    0.0000 </r>
       <r>   20.1625    0.0000 </r>
       <r>   20.1625    0.0000 </r>
       <r>   24.6387    0.0000 </r>
       <r>   24.6387    0.0000 </r>
       <r>   25.1488    0.0000 </r>
       <r>   33.0670    0.0000 </r>
       <r>   34.1192    0.0000 </r>
      </set>
      <set comment="kpoint 3">
       <r>  -40.1600    1.0000 </r>
       <r>  -40.1260    1.0000 </r>
       <r>  -40.1260    1.0000 </r>
       <r>  -16.0222    1.0000 </r>
       <r>   -2.0763    1.0000 </r>
       <r>    0.4157    1.0000 </r>
       <r>    0.4157    1.0000 </r>
       <r>   12.8106    0.0000 </r>
       <r>   13.3548    0.0000 </r>
       <r>   17.5099    0.0000 </r>
       <r>   22.0696    0.0000 </r>
       <r>   22.0696    0.0000 </r>
       <r>   28.4749    0.0000 </r>
       <r>   31.0351    0.0000 </r>
       <r>   33.1525    0.0000 </r>
       <r>   33.1525    0.0000 </r>
      </set>
      <set comment="kpoint 4">
       <r>  -40.1598    1.0000 </r>
       <r>  -40.1555    1.0000 </r>
       <r>  -40.1217    1.0000 </r>
       <r>  -15.6263    1.0000 </r>
       <r>   -1.8570    1.0000 </r>
       <r>   -1.6901    1.0000 </r>
       <r>    0.4722    1.0000 </r>
       <r>   13.7550    0.0000 </r>
       <r>   15.8536    0.0000 </r>
       <r>   16.1449    0.0000 </r>
       <r>   21.5536    0.0000 </r>
       <r>   22.5257    0.0000 </r>
       <r>   26.8483    0.0000 </r>
       <r>   31.4331    0.0000 </r>
       <r>   32.1507    0.0000 </r>
       <r>   32.9676    0.0000 </r>
      </set>
     </set>
    </set>
   </array>
  </eigenvalues>
  <separator name="orbital magnetization" >
   <v name="MAGDIPOLOUT">      0.00000000      0.00000000      0.00000000</v>
  </separator>
  <dos>
   <i name="efermi">      1.94647323 </i>
   <total>
    <array>
     <dimension dim="1">gridpoints</dimension>
     <dimension dim="2">spin</dimension>
     <field>energy</field>
     <field>total</field>
     <field>integrated</field>
     <set>
      <set comment="spin 1">
       <r>   -43.8828     0.0000     0.0000 </r>
       <r>   -43.6104     0.0000     0.0000 </r>
       <r>   -43.3380     0.0000     0.0000 </r>
       <r>   -43.0657     0.0000     0.0000 </r>
       <r>   -42.7933     0.0000     0.0000 </r>
       <r>   -42.5209     0.0000     0.0000 </r>
       <r>   -42.2485     0.0000     0.0000 </r>
       <r>   -41.9761     0.0000     0.0000 </r>
       <r>   -41.7037     0.0000     0.0000 </r>
       <r>   -41.4313     0.0000     0.0000 </r>
       <r>   -41.1589     0.0000     0.0000 </r>
       <r>   -40.8865     0.0000     0.0000 </r>
       <r>   -40.6142     0.0000     0.0000 </r>
       <r>   -40.3418     0.0000     0.0000 </r>
       <r>   -40.0694    20.9156     5.6972 </r>
       <r>   -39.7970     1.1118     6.0000 </r>
       <r>   -39.5246     0.0000     6.0000 </r>
       <r>   -39.2522     0.0000     6.0000 </r>
       <r>   -38.9798     0.0000     6.0000 </r>
       <r>   -38.7074     0.0000     6.0000 </r>
       <r>   -38.4351     0.0000     6.0000 </r>
       <r>   -38.1627     0.0000     6.0000 </r>
       <r>   -37.8903     0.0000     6.0000 </r>
       <r>   -37.6179     0.0000     6.0000 </r>
       <r>   -37.3455     0.0000     6.0000 </r>
       <r>   -37.0731     0.0000     6.0000 </r>
       <r>   -36.8007     0.0000     6.0000 </r>
       <r>   -36.5283     0.0000     6.0000 </r>
       <r>   -36.2560     0.0000     6.0000 </r>
       <r>   -35.9836     0.0000     6.0000 </r>
       <r>   -35.7112     0.0000     6.0000 </r>
       <r>   -35.4388     0.0000     6.0000 </r>
       <r>   -35.1664     0.0000     6.0000 </r>
       <r>   -34.8940     0.0000     6.0000 </r>
       <r>   -34.6216     0.0000     6.0000 </r>
       <r>   -34.3492     0.0000     6.0000 </r>
       <r>   -34.0768     0.0000     6.0000 </r>
       <r>   -33.8045     0.0000     6.0000 </r>
       <r>   -33.5321     0.0000     6.0000 </r>
       <r>   -33.2597     0.0000     6.0000 </r>
       <r>   -32.9873     0.0000     6.0000 </r>
       <r>   -32.7149     0.0000     6.0000 </r>
       <r>   -32.4425     0.0000     6.0000 </r>
       <r>   -32.1701     0.0000     6.0000 </r>
       <r>   -31.8977     0.0000     6.0000 </r>
       <r>   -31.6254     0.0000     6.0000 </r>
       <r>   -31.3530     0.0000     6.0000 </r>
       <r>   -31.0806     0.0000     6.0000 </r>
       <r>   -30.8082     0.0000     6.0000 </r>
       <r>   -30.5358     0.0000     6.0000 </r>
       <r>   -30.2634     0.0000     6.0000 </r>
       <r>   -29.9910     0.0000     6.0000 </r>
       <r>   -29.7186     0.0000     6.0000 </r>
       <r>   -29.4463     0.0000     6.0000 </r>
       <r>   -29.1739     0.0000     6.0000 </r>
       <r>   -28.9015     0.0000     6.0000 </r>
       <r>   -28.6291     0.0000     6.0000 </r>
       <r>   -28.3567     0.0000     6.0000 </r>
       <r>   -28.0843     0.0000     6.0000 </r>
       <r>   -27.8119     0.0000     6.0000 </r>
       <r>   -27.5395     0.0000     6.0000 </r>
       <r>   -27.2671     0.0000     6.0000 </r>
       <r>   -26.9948     0.0000     6.0000 </r>
       <r>   -26.7224     0.0000     6.0000 </r>
       <r>   -26.4500     0.0000     6.0000 </r>
       <r>   -26.1776     0.0000     6.0000 </r>
       <r>   -25.9052     0.0000     6.0000 </r>
       <r>   -25.6328     0.0000     6.0000 </r>
       <r>   -25.3604     0.0000     6.0000 </r>
       <r>   -25.0880     0.0000     6.0000 </r>
       <r>   -24.8157     0.0000     6.0000 </r>
       <r>   -24.5433     0.0000     6.0000 </r>
       <r>   -24.2709     0.0000     6.0000 </r>
       <r>   -23.9985     0.0000     6.0000 </r>
       <r>   -23.7261     0.0000     6.0000 </r>
       <r>   -23.4537     0.0000     6.0000 </r>
       <r>   -23.1813     0.0000     6.0000 </r>
       <r>   -22.9089     0.0000     6.0000 </r>
       <r>   -22.6365     0.0000     6.0000 </r>
       <r>   -22.3642     0.0000     6.0000 </r>
       <r>   -22.0918     0.0000     6.0000 </r>
       <r>   -21.8194     0.0000     6.0000 </r>
       <r>   -21.5470     0.0000     6.0000 </r>
       <r>   -21.2746     0.0000     6.0000 </r>
       <r>   -21.0022     0.0000     6.0000 </r>
       <r>   -20.7298     0.0000     6.0000 </r>
       <r>   -20.4574     0.0000     6.0000 </r>
       <r>   -20.1851     0.0000     6.0000 </r>
       <r>   -19.9127     0.0000     6.0000 </r>
       <r>   -19.6403     0.0000     6.0000 </r>
       <r>   -19.3679     0.0000     6.0000 </r>
       <r>   -19.0955     0.0000     6.0000 </r>
       <r>   -18.8231     0.0000     6.0000 </r>
       <r>   -18.5507     0.0000     6.0000 </r>
       <r>   -18.2783     0.0000     6.0000 </r>
       <r>   -18.0060     0.0000     6.0000 </r>
       <r>   -17.7336     0.0000     6.0000 </r>
       <r>   -17.4612     0.0000     6.0000 </r>
       <r>   -17.1888     0.2429     6.0662 </r>
       <r>   -16.9164     0.0290     6.0741 </r>
       <r>   -16.6440     0.0000     6.0741 </r>
       <r>   -16.3716     0.0002     6.0741 </r>
       <r>   -16.0992     2.1992     6.6732 </r>
       <r>   -15.8268     1.6077     7.1111 </r>
       <r>   -15.5545     3.1944     7.9812 </r>
       <r>   -15.2821     0.0689     8.0000 </r>
       <r>   -15.0097     0.0000     8.0000 </r>
       <r>   -14.7373     0.0000     8.0000 </r>
       <r>   -14.4649     0.0000     8.0000 </r>
       <r>   -14.1925     0.0000     8.0000 </r>
       <r>   -13.9201     0.0000     8.0000 </r>
       <r>   -13.6477     0.0000     8.0000 </r>
       <r>   -13.3754     0.0000     8.0000 </r>
       <r>   -13.1030     0.0000     8.0000 </r>
       <r>   -12.8306     0.0000     8.0000 </r>
       <r>   -12.5582     0.0000     8.0000 </r>
       <r>   -12.2858     0.0000     8.0000 </r>
       <r>   -12.0134     0.0000     8.0000 </r>
       <r>   -11.7410     0.0000     8.0000 </r>
       <r>   -11.4686     0.0000     8.0000 </r>
       <r>   -11.1963     0.0000     8.0000 </r>
       <r>   -10.9239     0.0000     8.0000 </r>
       <r>   -10.6515     0.0000     8.0000 </r>
       <r>   -10.3791     0.0000     8.0000 </r>
       <r>   -10.1067     0.0000     8.0000 </r>
       <r>    -9.8343     0.0000     8.0000 </r>
       <r>    -9.5619     0.0000     8.0000 </r>
       <r>    -9.2895     0.0000     8.0000 </r>
       <r>    -9.0171     0.0000     8.0000 </r>
       <r>    -8.7448     0.0000     8.0000 </r>
       <r>    -8.4724     0.0000     8.0000 </r>
       <r>    -8.2000     0.0000     8.0000 </r>
       <r>    -7.9276     0.0000     8.0000 </r>
       <r>    -7.6552     0.0000     8.0000 </r>
       <r>    -7.3828     0.0000     8.0000 </r>
       <r>    -7.1104     0.0000     8.0000 </r>
       <r>    -6.8380     0.0000     8.0000 </r>
       <r>    -6.5657     0.0000     8.0000 </r>
       <r>    -6.2933     0.0000     8.0000 </r>
       <r>    -6.0209     0.0000     8.0000 </r>
       <r>    -5.7485     0.0000     8.0000 </r>
       <r>    -5.4761     0.0000     8.0000 </r>
       <r>    -5.2037     0.0000     8.0000 </r>
       <r>    -4.9313     0.0000     8.0000 </r>
       <r>    -4.6589     0.0000     8.0000 </r>
       <r>    -4.3865     0.0000     8.0000 </r>
       <r>    -4.1142     0.0000     8.0000 </r>
       <r>    -3.8418     0.0000     8.0000 </r>
       <r>    -3.5694     0.0000     8.0000 </r>
       <r>    -3.2970     0.0000     8.0000 </r>
       <r>    -3.0246     0.0000     8.0000 </r>
       <r>    -2.7522     0.0000     8.0000 </r>
       <r>    -2.4798     0.0000     8.0000 </r>
       <r>    -2.2074     2.1745     8.5923 </r>
       <r>    -1.9351     1.6771     9.0492 </r>
       <r>    -1.6627     5.7689    10.6206 </r>
       <r>    -1.3903     0.7132    10.8148 </r>
       <r>    -1.1179     0.0000    10.8148 </r>
       <r>    -0.8455     0.0000    10.8148 </r>
       <r>    -0.5731     0.0000    10.8148 </r>
       <r>    -0.3007     0.0000    10.8148 </r>
       <r>    -0.0283     0.0000    10.8148 </r>
       <r>     0.2440     0.0000    10.8148 </r>
       <r>     0.5164     6.1761    12.4971 </r>
       <r>     0.7888     0.3505    12.5926 </r>
       <r>     1.0612     4.0827    13.7047 </r>
       <r>     1.3336     0.2683    13.7778 </r>
       <r>     1.6060     0.7768    13.9894 </r>
       <r>     1.8784     0.0391    14.0000 </r>
       <r>     2.1508     0.0000    14.0000 </r>
       <r>     2.4232     0.0000    14.0000 </r>
       <r>     2.6955     0.0000    14.0000 </r>
       <r>     2.9679     0.0000    14.0000 </r>
       <r>     3.2403     0.0000    14.0000 </r>
       <r>     3.5127     0.0000    14.0000 </r>
       <r>     3.7851     0.0000    14.0000 </r>
       <r>     4.0575     0.0000    14.0000 </r>
       <r>     4.3299     0.0000    14.0000 </r>
       <r>     4.6023     0.0000    14.0000 </r>
       <r>     4.8746     0.0000    14.0000 </r>
       <r>     5.1470     0.0000    14.0000 </r>
       <r>     5.4194     0.0000    14.0000 </r>
       <r>     5.6918     0.0000    14.0000 </r>
       <r>     5.9642     0.0000    14.0000 </r>
       <r>     6.2366     0.0000    14.0000 </r>
       <r>     6.5090     0.0000    14.0000 </r>
       <r>     6.7814     0.0000    14.0000 </r>
       <r>     7.0537     0.0000    14.0000 </r>
       <r>     7.3261     0.0000    14.0000 </r>
       <r>     7.5985     0.0000    14.0000 </r>
       <r>     7.8709     0.0000    14.0000 </r>
       <r>     8.1433     0.2706    14.0737 </r>
       <r>     8.4157     0.0013    14.0741 </r>
       <r>     8.6881     0.0000    14.0741 </r>
       <r>     8.9605     0.0000    14.0741 </r>
       <r>     9.2329     0.0000    14.0741 </r>
       <r>     9.5052     0.0000    14.0741 </r>
       <r>     9.7776     0.0000    14.0741 </r>
       <r>    10.0500     0.0000    14.0741 </r>
       <r>    10.3224     0.0000    14.0741 </r>
       <r>    10.5948     0.0000    14.0741 </r>
       <r>    10.8672     0.0000    14.0741 </r>
       <r>    11.1396     2.1534    14.6606 </r>
       <r>    11.4120     0.0221    14.6667 </r>
       <r>    11.6843     0.0000    14.6667 </r>
       <r>    11.9567     0.0000    14.6667 </r>
       <r>    12.2291     0.0000    14.6667 </r>
       <r>    12.5015     0.0000    14.6667 </r>
       <r>    12.7739     0.2446    14.7333 </r>
       <r>    13.0463     1.3870    15.1111 </r>
       <r>    13.3187     0.2504    15.1793 </r>
       <r>    13.5911     1.3813    15.5556 </r>
       <r>    13.8635     3.2598    16.4435 </r>
       <r>    14.1358     0.0035    16.4444 </r>
       <r>    14.4082     0.0000    16.4444 </r>
       <r>    14.6806     0.0000    16.4444 </r>
       <r>    14.9530     0.0000    16.4444 </r>
       <r>    15.2254     0.0000    16.4444 </r>
       <r>    15.4978     0.0000    16.4444 </r>
       <r>    15.7702     0.0298    16.4526 </r>
       <r>    16.0426     5.3897    17.9206 </r>
       <r>    16.3149     3.2827    18.8148 </r>
       <r>    16.5873     0.0000    18.8148 </r>
       <r>    16.8597     0.0000    18.8148 </r>
       <r>    17.1321     0.0000    18.8148 </r>
       <r>    17.4045     0.0023    18.8155 </r>
       <r>    17.6769     1.6293    19.2593 </r>
       <r>    17.9493     0.0000    19.2593 </r>
       <r>    18.2217     0.0000    19.2593 </r>
       <r>    18.4940     0.0000    19.2593 </r>
       <r>    18.7664     0.0000    19.2593 </r>
       <r>    19.0388     0.0000    19.2593 </r>
       <r>    19.3112     0.5505    19.4092 </r>
       <r>    19.5836     0.2654    19.4815 </r>
       <r>    19.8560     0.0000    19.4815 </r>
       <r>    20.1284     0.7286    19.6799 </r>
       <r>    20.4008     3.6225    20.6667 </r>
       <r>    20.6732     0.0000    20.6667 </r>
       <r>    20.9455     0.0000    20.6667 </r>
       <r>    21.2179     0.0000    20.6667 </r>
       <r>    21.4903     0.1200    20.6994 </r>
       <r>    21.7627     3.1433    21.5556 </r>
       <r>    22.0351     0.5372    21.7019 </r>
       <r>    22.3075     2.7261    22.4444 </r>
       <r>    22.5799     3.0590    23.2777 </r>
       <r>    22.8523     0.2043    23.3333 </r>
       <r>    23.1246     0.0058    23.3349 </r>
       <r>    23.3970     0.2662    23.4074 </r>
       <r>    23.6694     0.0000    23.4074 </r>
       <r>    23.9418     0.0000    23.4074 </r>
       <r>    24.2142     0.0000    23.4074 </r>
       <r>    24.4866     0.0000    23.4074 </r>
       <r>    24.7590     4.3496    24.5922 </r>
       <r>    25.0314     0.0025    24.5929 </r>
       <r>    25.3037     2.7184    25.3333 </r>
       <r>    25.5761     0.0000    25.3333 </r>
       <r>    25.8485     0.0000    25.3333 </r>
       <r>    26.1209     0.0000    25.3333 </r>
       <r>    26.3933     0.0000    25.3333 </r>
       <r>    26.6657     0.0000    25.3333 </r>
       <r>    26.9381     3.2453    26.2173 </r>
       <r>    27.2105     0.0181    26.2222 </r>
       <r>    27.4829     0.0000    26.2222 </r>
       <r>    27.7552     0.0000    26.2222 </r>
       <r>    28.0276     0.0000    26.2222 </r>
       <r>    28.3000     0.5171    26.3631 </r>
       <r>    28.5724     1.6537    26.8135 </r>
       <r>    28.8448     0.0048    26.8148 </r>
       <r>    29.1172     0.0000    26.8148 </r>
       <r>    29.3896     0.0000    26.8148 </r>
       <r>    29.6620     0.0000    26.8148 </r>
       <r>    29.9343     0.0000    26.8148 </r>
       <r>    30.2067     0.0000    26.8148 </r>
       <r>    30.4791     0.0000    26.8148 </r>
       <r>    30.7515     0.0000    26.8148 </r>
       <r>    31.0239     0.6133    26.9819 </r>
       <r>    31.2963     1.0186    27.2593 </r>
       <r>    31.5687     3.2629    28.1481 </r>
       <r>    31.8411     0.0000    28.1481 </r>
       <r>    32.1135     0.4769    28.2781 </r>
       <r>    32.3858     2.7864    29.0370 </r>
       <r>    32.6582     0.0000    29.0370 </r>
       <r>    32.9306     0.4826    29.1685 </r>
       <r>    33.2030     7.9693    31.3392 </r>
       <r>    33.4754     0.2502    31.4074 </r>
       <r>    33.7478     0.0000    31.4074 </r>
       <r>    34.0202     0.0055    31.4089 </r>
       <r>    34.2926     2.1700    32.0000 </r>
       <r>    34.5649     0.0000    32.0000 </r>
       <r>    34.8373     0.0000    32.0000 </r>
       <r>    35.1097     0.0000    32.0000 </r>
       <r>    35.3821     0.0000    32.0000 </r>
       <r>    35.6545     0.0000    32.0000 </r>
       <r>    35.9269     0.0000    32.0000 </r>
       <r>    36.1993     0.0000    32.0000 </r>
       <r>    36.4717     0.0000    32.0000 </r>
       <r>    36.7440     0.0000    32.0000 </r>
       <r>    37.0164     0.0000    32.0000 </r>
       <r>    37.2888     0.0000    32.0000 </r>
       <r>    37.5612     0.0000    32.0000 </r>
       <r>    37.8336     0.0000    32.0000 </r>
      </set>
     </set>
    </array>
   </total>
  </dos>
 </calculation>
 <structure name="finalpos" >
  <crystal>
   <varray name="basis" >
    <v>       0.00000000       2.10850000       2.10850000 </v>
    <v>       2.10850000       0.00000000       2.10850000 </v>
    <v>       2.10850000       2.10850000       0.00000000 </v>
   </varray>
   <i name="volume">     18.74782158 </i>
   <varray name="rec_basis" >
    <v>      -0.23713540       0.23713540       0.23713540 </v>
    <v>       0.23713540      -0.23713540       0.23713540 </v>
    <v>       0.23713540       0.23713540      -0.23713540 </v>
   </varray>
  </crystal>
  <varray name="positions" >
   <v>       0.00000000       0.00000000       0.00000000 </v>
   <v>       0.50000000       0.50000000       0.50000000 </v>
  </varray>
 </structure>
</modeling>
