 running on   32 total cores
 distrk:  each k-point on   32 cores,    1 groups
 distr:  one band on    4 cores,    8 groups
 using from now: INCAR     
 vasp.5.4.4.18Apr17-6-g9f103f2a35 (build Mar 10 2026 18:13:51) complex          
  
 POSCAR found type information on POSCAR  Mg O 
 POSCAR found :  2 types and       2 ions
 scaLAPACK will be used
 LDA part: xc-table for Pade appr. of Perdew
 found WAVECAR, reading the header
 POSCAR, INCAR and KPOINTS ok, starting setup
 FFT: planning ...
 reading WAVECAR
 the WAVECAR file was read successfully
 initial charge from wavefunction
 entering main loop
       N       E                     dE             d eps       ncg     rms          ort
 gam= 0.000 g(H,U,f)=  0.393E-01 0.171E-01 0.406E-19 ort(H,U,f) = 0.000E+00 0.000E+00 0.000E+00
SDA:   1    -0.141290800726E+02   -0.14129E+02   -0.22569E-01    64   0.564E-01 0.000E+00
 gam= 0.382 g(H,U,f)=  0.915E-02 0.132E-01 0.330E-15 ort(H,U,f) = 0.172E-01 0.144E-01 0.380E-15
DMP:   2    -0.141466786230E+02   -0.17599E-01   -0.13755E-01    64   0.223E-01 0.317E-01
 gam= 0.382 g(H,U,f)=  0.130E-02 0.808E-02 0.739E-23 ort(H,U,f) = 0.160E-02 0.140E-01 0.137E-22
DMP:   3    -0.141566596675E+02   -0.99810E-02   -0.61438E-02    64   0.939E-02 0.156E-01
 gam= 0.382 g(H,U,f)=  0.680E-03 0.370E-02 0.990E-17 ort(H,U,f) =-0.769E-03 0.877E-02 0.146E-16
DMP:   4    -0.141613120707E+02   -0.46524E-02   -0.29730E-02    64   0.438E-02 0.800E-02
 gam= 0.382 g(H,U,f)=  0.249E-03 0.137E-02 0.297E-15 ort(H,U,f) =-0.140E-03 0.403E-02 0.921E-15
DMP:   5    -0.141635641951E+02   -0.22521E-02   -0.12409E-02    64   0.162E-02 0.389E-02
 gam= 0.382 g(H,U,f)=  0.138E-03 0.542E-03 0.189E-20 ort(H,U,f) = 0.212E-04 0.160E-02 0.700E-20
DMP:   6    -0.141645045328E+02   -0.94034E-03   -0.52058E-03    64   0.681E-03 0.163E-02
 gam= 0.382 g(H,U,f)=  0.542E-04 0.252E-03 0.609E-24 ort(H,U,f) = 0.453E-04 0.695E-03 0.254E-23
DMP:   7    -0.141649109731E+02   -0.40644E-03   -0.23579E-03    64   0.307E-03 0.741E-03
 gam= 0.382 g(H,U,f)=  0.124E-04 0.115E-03 0.408E-26 ort(H,U,f) = 0.514E-05 0.334E-03 0.177E-25
DMP:   8    -0.141650955352E+02   -0.18456E-03   -0.10266E-03    64   0.127E-03 0.340E-03
 gam= 0.382 g(H,U,f)=  0.878E-05 0.476E-04 0.150E-27 ort(H,U,f) =-0.486E-05 0.155E-03 0.651E-27
DMP:   9    -0.141651753816E+02   -0.79846E-04   -0.45479E-04    64   0.564E-04 0.150E-03
 gam= 0.382 g(H,U,f)=  0.390E-05 0.191E-04 0.120E-28 ort(H,U,f) = 0.152E-05 0.668E-04 0.522E-28
DMP:  10    -0.141652104309E+02   -0.35049E-04   -0.19640E-04    64   0.230E-04 0.683E-04
 gam= 0.382 g(H,U,f)=  0.111E-05 0.769E-05 0.134E-29 ort(H,U,f) = 0.744E-06 0.278E-04 0.605E-29
DMP:  11    -0.141652250945E+02   -0.14664E-04   -0.78725E-05    64   0.879E-05 0.285E-04
 gam= 0.382 g(H,U,f)=  0.444E-06 0.312E-05 0.186E-30 ort(H,U,f) = 0.137E-06 0.114E-04 0.880E-30
DMP:  12    -0.141652308519E+02   -0.57574E-05   -0.31853E-05    64   0.356E-05 0.115E-04
 gam= 0.382 g(H,U,f)=  0.143E-06 0.127E-05 0.312E-31 ort(H,U,f) = 0.567E-07 0.465E-05 0.154E-30
DMP:  13    -0.141652330618E+02   -0.22099E-05   -0.12849E-05    64   0.142E-05 0.470E-05
 gam= 0.382 g(H,U,f)=  0.550E-07 0.531E-06 0.613E-32 ort(H,U,f) =-0.290E-08 0.191E-05 0.313E-31
DMP:  14    -0.141652338643E+02   -0.80256E-06   -0.52517E-06    64   0.586E-06 0.190E-05
 final diagonalization
   1 F= -.14165234E+02 E0= -.14165234E+02  d E =-.121687E-29
