 running on   32 total cores
 distrk:  each k-point on   32 cores,    1 groups
 distr:  one band on    4 cores,    8 groups
 using from now: INCAR     
 vasp.5.4.4.18Apr17-6-g9f103f2a35 (build Mar 10 2026 18:13:51) complex          
  
 POSCAR found type information on POSCAR  Mg O 
 POSCAR found :  2 types and       2 ions
 scaLAPACK will be used
 LDA part: xc-table for Pade appr. of Perdew
 POSCAR, INCAR and KPOINTS ok, starting setup
 FFT: planning ...
 WAVECAR not read
 entering main loop
       N       E                     dE             d eps       ncg     rms          rms(c)
DAV:   1     0.976692635179E+02    0.97669E+02   -0.10015E+04   136   0.107E+03
DAV:   2    -0.994360479146E+01   -0.10761E+03   -0.10355E+03   152   0.298E+02
DAV:   3    -0.133881979220E+02   -0.34446E+01   -0.34416E+01   152   0.495E+01
DAV:   4    -0.134044761637E+02   -0.16278E-01   -0.16278E-01   144   0.356E+00
DAV:   5    -0.134045877580E+02   -0.11159E-03   -0.11159E-03   160   0.286E-01    0.734E+00
DAV:   6    -0.117771247807E+02    0.16275E+01   -0.42270E+00   152   0.135E+01    0.221E+00
DAV:   7    -0.117726523921E+02    0.44724E-02   -0.10136E-01   136   0.255E+00    0.142E+00
DAV:   8    -0.117700747857E+02    0.25776E-02   -0.36477E-02   136   0.190E+00    0.332E-01
DAV:   9    -0.117688858995E+02    0.11889E-02   -0.19502E-03   144   0.333E-01    0.791E-02
DAV:  10    -0.117690136262E+02   -0.12773E-03   -0.27082E-04   144   0.105E-01    0.193E-02
DAV:  11    -0.117690137477E+02   -0.12145E-06   -0.28410E-06   136   0.160E-02
   1 F= -.11769014E+02 E0= -.11769014E+02  d E =-.504485E-11
 writing wavefunctions
