rutile TiO2 (6-atom primitive cell; a=b=
   1.00000000000000     
     4.5937000000000001    0.0000000000000000    0.0000000000000000
     0.0000000000000000    4.5937000000000001    0.0000000000000000
     0.0000000000000000    0.0000000000000000    2.9586999999999999
   Ti   O 
     2     4
Direct
  0.0000000000000000  0.0000000000000000  0.0000000000000000
  0.5000000000000000  0.5000000000000000  0.5000000000000000
  0.3047800008707569  0.3047800008707569  0.0000000000000000
  0.6952199991292431  0.6952199991292431  0.0000000000000000
  0.8047800008707569  0.1952199991292431  0.5000000000000000
  0.1952199991292431  0.8047800008707569  0.5000000000000000
 
  0.00000000E+00  0.00000000E+00  0.00000000E+00
  0.00000000E+00  0.00000000E+00  0.00000000E+00
  0.00000000E+00  0.00000000E+00  0.00000000E+00
  0.00000000E+00  0.00000000E+00  0.00000000E+00
  0.00000000E+00  0.00000000E+00  0.00000000E+00
  0.00000000E+00  0.00000000E+00  0.00000000E+00
