    6    6    1    1
  0.1040579E+02  0.4593700E-09  0.4593700E-09  0.2958700E-09  0.5000000E-15
  1.000000000000000E-004
  CAR 
 rutile TiO2 (PBE band gap)              
     48     24     32
 
  0.0000000E+00  0.0000000E+00  0.0000000E+00  0.1041667E-01
    1      -52.071925   1.000000
    2      -52.054675   1.000000
    3      -28.379771   1.000000
    4      -28.379771   1.000000
    5      -28.214146   1.000000
    6      -28.214146   1.000000
    7      -28.172209   1.000000
    8      -28.138571   1.000000
    9      -13.356743   1.000000
   10      -12.190393   1.000000
   11      -11.453150   1.000000
   12      -11.453150   1.000000
   13       -0.918058   1.000000
   14       -0.500249   1.000000
   15       -0.063635   1.000000
   16        1.022127   1.000000
   17        1.022127   1.000000
   18        2.300332   1.000000
   19        2.300332   1.000000
   20        2.866184   1.000000
   21        4.146025   1.000000
   22        4.404642   1.000000
   23        4.404642   1.000000
   24        4.854492   1.000000
   25        6.710894   0.000000
   26        7.014033   0.000000
   27        7.243904   0.000000
   28        7.336804   0.000000
   29        7.336804   0.000000
   30        9.226422   0.000000
   31        9.410077   0.000000
   32       11.461175   0.000000
 
  0.2500000E+00  0.0000000E+00  0.0000000E+00  0.4166667E-01
    1      -52.069376   1.000000
    2      -52.057249   1.000000
    3      -28.360700   1.000000
    4      -28.359111   1.000000
    5      -28.236931   1.000000
    6      -28.235303   1.000000
    7      -28.167287   1.000000
    8      -28.143472   1.000000
    9      -13.143035   1.000000
   10      -12.223741   1.000000
   11      -11.635423   1.000000
   12      -11.533114   1.000000
   13       -0.552376   1.000000
   14       -0.269312   1.000000
   15        0.353540   1.000000
   16        1.045184   1.000000
   17        1.058469   1.000000
   18        1.962366   1.000000
   19        2.172326   1.000000
   20        2.910375   1.000000
   21        3.419870   1.000000
   22        3.786023   1.000000
   23        4.032215   1.000000
   24        4.621610   1.000000
   25        7.008241   0.000000
   26        7.337430   0.000000
   27        7.562712   0.000000
   28        7.632981   0.000000
   29        7.648011   0.000000
   30        9.102755   0.000000
   31        9.713631   0.000000
   32       11.307547   0.000000
 
  0.5000000E+00  0.0000000E+00  0.0000000E+00  0.2083333E-01
    1      -52.063320   1.000000
    2      -52.063320   1.000000
    3      -28.327464   1.000000
    4      -28.327464   1.000000
    5      -28.270665   1.000000
    6      -28.270665   1.000000
    7      -28.155369   1.000000
    8      -28.155369   1.000000
    9      -12.619829   1.000000
   10      -12.619829   1.000000
   11      -11.687447   1.000000
   12      -11.687447   1.000000
   13       -0.067118   1.000000
   14       -0.067118   1.000000
   15        1.081472   1.000000
   16        1.081472   1.000000
   17        1.612223   1.000000
   18        1.612223   1.000000
   19        1.804929   1.000000
   20        1.804929   1.000000
   21        3.206727   1.000000
   22        3.206727   1.000000
   23        4.108949   1.000000
   24        4.108949   1.000000
   25        7.383289   0.000000
   26        7.383289   0.000000
   27        7.858985   0.000000
   28        7.858985   0.000000
   29        8.403095   0.000000
   30        8.403095   0.000000
   31       10.936973   0.000000
   32       10.936976   0.000000
 
  0.2500000E+00  0.2500000E+00  0.0000000E+00  0.4166667E-01
    1      -52.067570   1.000000
    2      -52.058982   1.000000
    3      -28.385970   1.000000
    4      -28.327887   1.000000
    5      -28.270229   1.000000
    6      -28.210348   1.000000
    7      -28.163758   1.000000
    8      -28.146918   1.000000
    9      -13.003646   1.000000
   10      -12.318949   1.000000
   11      -11.715911   1.000000
   12      -11.519986   1.000000
   13       -0.707007   1.000000
   14        0.003274   1.000000
   15        0.665854   1.000000
   16        0.986745   1.000000
   17        1.081887   1.000000
   18        1.796715   1.000000
   19        2.424108   1.000000
   20        3.018248   1.000000
   21        3.115357   1.000000
   22        3.709176   1.000000
   23        3.734932   1.000000
   24        4.450294   1.000000
   25        6.787032   0.000000
   26        7.347265   0.000000
   27        7.425295   0.000000
   28        7.863895   0.000000
   29        7.988404   0.000000
   30        8.972265   0.000000
   31        9.964659   0.000000
   32       11.102787   0.000000
 
  0.5000000E+00  0.2500000E+00  0.0000000E+00  0.4166667E-01
    1      -52.063289   1.000000
    2      -52.063289   1.000000
    3      -28.367865   1.000000
    4      -28.367865   1.000000
    5      -28.230563   1.000000
    6      -28.230563   1.000000
    7      -28.155315   1.000000
    8      -28.155315   1.000000
    9      -12.657148   1.000000
   10      -12.657148   1.000000
   11      -11.634304   1.000000
   12      -11.634304   1.000000
   13       -0.413145   1.000000
   14       -0.413145   1.000000
   15        1.013355   1.000000
   16        1.013355   1.000000
   17        1.579359   1.000000
   18        1.579359   1.000000
   19        2.632210   1.000000
   20        2.632210   1.000000
   21        3.372355   1.000000
   22        3.372355   1.000000
   23        3.763275   1.000000
   24        3.763275   1.000000
   25        7.115378   0.000000
   26        7.115378   0.000000
   27        7.604925   0.000000
   28        7.604925   0.000000
   29        8.549609   0.000000
   30        8.549609   0.000000
   31       10.775887   0.000000
   32       10.775887   0.000000
 
  0.5000000E+00  0.5000000E+00  0.0000000E+00  0.1041667E-01
    1      -52.063201   1.000000
    2      -52.063201   1.000000
    3      -28.392182   1.000000
    4      -28.392182   1.000000
    5      -28.206496   1.000000
    6      -28.206496   1.000000
    7      -28.155249   1.000000
    8      -28.155249   1.000000
    9      -12.691180   1.000000
   10      -12.691180   1.000000
   11      -11.583858   1.000000
   12      -11.583858   1.000000
   13       -0.691597   1.000000
   14       -0.691597   1.000000
   15        0.951596   1.000000
   16        0.951596   1.000000
   17        1.997793   1.000000
   18        1.997793   1.000000
   19        2.669326   1.000000
   20        2.669326   1.000000
   21        3.541633   1.000000
   22        3.541633   1.000000
   23        3.792305   1.000000
   24        3.792305   1.000000
   25        6.751603   0.000000
   26        6.751603   0.000000
   27        7.358773   0.000000
   28        7.358773   0.000000
   29        8.670332   0.000000
   30        8.670332   0.000000
   31       10.653757   0.000000
   32       10.653757   0.000000
 
  0.0000000E+00  0.0000000E+00  0.1666667E+00  0.2083333E-01
    1      -52.060817   1.000000
    2      -52.045887   1.000000
    3      -28.350125   1.000000
    4      -28.350125   1.000000
    5      -28.284568   1.000000
    6      -28.256849   1.000000
    7      -28.209484   1.000000
    8      -28.209484   1.000000
    9      -13.078462   1.000000
   10      -12.038435   1.000000
   11      -11.583305   1.000000
   12      -11.583305   1.000000
   13       -0.529866   1.000000
   14       -0.210340   1.000000
   15        0.253164   1.000000
   16        0.796154   1.000000
   17        0.796154   1.000000
   18        2.122319   1.000000
   19        2.772142   1.000000
   20        2.772142   1.000000
   21        3.156370   1.000000
   22        3.882674   1.000000
   23        3.882674   1.000000
   24        4.692912   1.000000
   25        7.097009   0.000000
   26        7.231849   0.000000
   27        7.276497   0.000000
   28        7.671094   0.000000
   29        7.671094   0.000000
   30        9.188104   0.000000
   31        9.605854   0.000000
   32       11.107258   0.000000
 
  0.2500000E+00  0.0000000E+00  0.1666667E+00  0.8333333E-01
    1      -52.058553   1.000000
    2      -52.048059   1.000000
    3      -28.339872   1.000000
    4      -28.332047   1.000000
    5      -28.277678   1.000000
    6      -28.273836   1.000000
    7      -28.224072   1.000000
    8      -28.216143   1.000000
    9      -12.889669   1.000000
   10      -12.043552   1.000000
   11      -11.759957   1.000000
   12      -11.645722   1.000000
   13       -0.218866   1.000000
   14        0.041516   1.000000
   15        0.404701   1.000000
   16        0.754407   1.000000
   17        1.144889   1.000000
   18        1.961864   1.000000
   19        2.229674   1.000000
   20        2.683864   1.000000
   21        2.744410   1.000000
   22        3.653401   1.000000
   23        3.805126   1.000000
   24        4.484814   1.000000
   25        7.217410   0.000000
   26        7.532437   0.000000
   27        7.593348   0.000000
   28        7.684800   0.000000
   29        7.969726   0.000000
   30        8.930342   0.000000
   31        9.955975   0.000000
   32       10.703828   0.000000
 
  0.5000000E+00  0.0000000E+00  0.1666667E+00  0.4166667E-01
    1      -52.053289   1.000000
    2      -52.053289   1.000000
    3      -28.310757   1.000000
    4      -28.310757   1.000000
    5      -28.290728   1.000000
    6      -28.290728   1.000000
    7      -28.231860   1.000000
    8      -28.231860   1.000000
    9      -12.419812   1.000000
   10      -12.419812   1.000000
   11      -11.777154   1.000000
   12      -11.777154   1.000000
   13        0.258410   1.000000
   14        0.258410   1.000000
   15        0.725729   1.000000
   16        0.725729   1.000000
   17        1.545810   1.000000
   18        1.545810   1.000000
   19        2.151663   1.000000
   20        2.151663   1.000000
   21        2.688711   1.000000
   22        2.688711   1.000000
   23        4.151056   1.000000
   24        4.151056   1.000000
   25        7.535648   0.000000
   26        7.535648   0.000000
   27        7.929204   0.000000
   28        7.929204   0.000000
   29        8.402542   0.000000
   30        8.402542   0.000000
   31       10.339362   0.000000
   32       10.339362   0.000000
 
  0.2500000E+00  0.2500000E+00  0.1666667E+00  0.8333333E-01
    1      -52.057006   1.000000
    2      -52.049568   1.000000
    3      -28.355668   1.000000
    4      -28.305796   1.000000
    5      -28.300441   1.000000
    6      -28.265779   1.000000
    7      -28.231877   1.000000
    8      -28.206182   1.000000
    9      -12.761426   1.000000
   10      -12.128747   1.000000
   11      -11.819869   1.000000
   12      -11.644169   1.000000
   13       -0.389648   1.000000
   14        0.340031   1.000000
   15        0.375392   1.000000
   16        0.739085   1.000000
   17        1.368174   1.000000
   18        1.832964   1.000000
   19        2.349819   1.000000
   20        2.642558   1.000000
   21        2.796034   1.000000
   22        3.658934   1.000000
   23        3.664954   1.000000
   24        4.178692   1.000000
   25        7.192586   0.000000
   26        7.289890   0.000000
   27        7.650211   0.000000
   28        8.021199   0.000000
   29        8.061555   0.000000
   30        8.773216   0.000000
   31       10.114733   0.000000
   32       10.582530   0.000000
 
  0.5000000E+00  0.2500000E+00  0.1666667E+00  0.8333333E-01
    1      -52.053269   1.000000
    2      -52.053269   1.000000
    3      -28.342822   1.000000
    4      -28.342822   1.000000
    5      -28.274580   1.000000
    6      -28.274580   1.000000
    7      -28.216515   1.000000
    8      -28.216515   1.000000
    9      -12.445733   1.000000
   10      -12.445733   1.000000
   11      -11.739087   1.000000
   12      -11.739087   1.000000
   13       -0.100105   1.000000
   14       -0.100105   1.000000
   15        0.520257   1.000000
   16        0.520257   1.000000
   17        1.988520   1.000000
   18        1.988520   1.000000
   19        2.579326   1.000000
   20        2.579326   1.000000
   21        2.936210   1.000000
   22        2.936210   1.000000
   23        3.744838   1.000000
   24        3.744838   1.000000
   25        7.436763   0.000000
   26        7.436763   0.000000
   27        7.690630   0.000000
   28        7.690630   0.000000
   29        8.392824   0.000000
   30        8.392824   0.000000
   31       10.590241   0.000000
   32       10.590241   0.000000
 
  0.5000000E+00  0.5000000E+00  0.1666667E+00  0.2083333E-01
    1      -52.053232   1.000000
    2      -52.053232   1.000000
    3      -28.361222   1.000000
    4      -28.361222   1.000000
    5      -28.270336   1.000000
    6      -28.270336   1.000000
    7      -28.202876   1.000000
    8      -28.202876   1.000000
    9      -12.469156   1.000000
   10      -12.469156   1.000000
   11      -11.703191   1.000000
   12      -11.703191   1.000000
   13       -0.380397   1.000000
   14       -0.380397   1.000000
   15        0.416609   1.000000
   16        0.416609   1.000000
   17        2.715240   1.000000
   18        2.715240   1.000000
   19        2.814397   1.000000
   20        2.814397   1.000000
   21        2.856952   1.000000
   22        2.856952   1.000000
   23        3.451656   1.000000
   24        3.451656   1.000000
   25        7.198022   0.000000
   26        7.198022   0.000000
   27        7.542888   0.000000
   28        7.542888   0.000000
   29        8.400231   0.000000
   30        8.400231   0.000000
   31       10.786225   0.000000
   32       10.786229   0.000000
 
  0.0000000E+00  0.0000000E+00  0.3333333E+00  0.2083333E-01
    1      -52.037567   1.000000
    2      -52.028920   1.000000
    3      -28.501853   1.000000
    4      -28.487361   1.000000
    5      -28.284334   1.000000
    6      -28.284334   1.000000
    7      -28.205862   1.000000
    8      -28.205862   1.000000
    9      -12.440860   1.000000
   10      -11.840546   1.000000
   11      -11.840546   1.000000
   12      -11.800379   1.000000
   13        0.271536   1.000000
   14        0.333434   1.000000
   15        0.830132   1.000000
   16        0.830132   1.000000
   17        1.078660   1.000000
   18        1.157667   1.000000
   19        1.763500   1.000000
   20        2.819509   1.000000
   21        2.819509   1.000000
   22        3.283615   1.000000
   23        3.283615   1.000000
   24        3.869654   1.000000
   25        7.190117   0.000000
   26        7.559889   0.000000
   27        7.979072   0.000000
   28        8.256276   0.000000
   29        8.256276   0.000000
   30        8.585819   0.000000
   31       10.145679   0.000000
   32       10.834079   0.000000
 
  0.2500000E+00  0.0000000E+00  0.3333333E+00  0.8333333E-01
    1      -52.036284   1.000000
    2      -52.030163   1.000000
    3      -28.506587   1.000000
    4      -28.495820   1.000000
    5      -28.271510   1.000000
    6      -28.268203   1.000000
    7      -28.215704   1.000000
    8      -28.212919   1.000000
    9      -12.378078   1.000000
   10      -12.014791   1.000000
   11      -11.811684   1.000000
   12      -11.720670   1.000000
   13        0.311477   1.000000
   14        0.403214   1.000000
   15        0.495293   1.000000
   16        0.744079   1.000000
   17        1.265420   1.000000
   18        1.347294   1.000000
   19        1.851324   1.000000
   20        2.678604   1.000000
   21        2.824664   1.000000
   22        3.178143   1.000000
   23        3.352046   1.000000
   24        4.064548   1.000000
   25        6.952941   0.000000
   26        7.759114   0.000000
   27        7.826035   0.000000
   28        8.045673   0.000000
   29        8.443762   0.000000
   30        8.656421   0.000000
   31       10.064556   0.000000
   32       10.084741   0.000000
 
  0.5000000E+00  0.0000000E+00  0.3333333E+00  0.4166667E-01
    1      -52.033189   1.000000
    2      -52.033189   1.000000
    3      -28.507390   1.000000
    4      -28.507390   1.000000
    5      -28.246758   1.000000
    6      -28.246758   1.000000
    7      -28.231758   1.000000
    8      -28.231758   1.000000
    9      -12.219570   1.000000
   10      -12.219570   1.000000
   11      -11.744325   1.000000
   12      -11.744325   1.000000
   13        0.306755   1.000000
   14        0.306755   1.000000
   15        0.626263   1.000000
   16        0.626263   1.000000
   17        1.364399   1.000000
   18        1.364399   1.000000
   19        2.170870   1.000000
   20        2.170870   1.000000
   21        3.024607   1.000000
   22        3.024607   1.000000
   23        3.839204   1.000000
   24        3.839204   1.000000
   25        7.119980   0.000000
   26        7.119980   0.000000
   27        8.083111   0.000000
   28        8.083111   0.000000
   29        8.613453   0.000000
   30        8.613453   0.000000
   31        9.801863   0.000000
   32        9.801863   0.000000
 
  0.2500000E+00  0.2500000E+00  0.3333333E+00  0.8333333E-01
    1      -52.035348   1.000000
    2      -52.031021   1.000000
    3      -28.506964   1.000000
    4      -28.494796   1.000000
    5      -28.287988   1.000000
    6      -28.246524   1.000000
    7      -28.231882   1.000000
    8      -28.204214   1.000000
    9      -12.312580   1.000000
   10      -11.996668   1.000000
   11      -11.891642   1.000000
   12      -11.721692   1.000000
   13        0.256572   1.000000
   14        0.305811   1.000000
   15        0.311231   1.000000
   16        0.783601   1.000000
   17        1.021037   1.000000
   18        1.758679   1.000000
   19        2.126147   1.000000
   20        2.455931   1.000000
   21        2.779394   1.000000
   22        3.282317   1.000000
   23        3.521174   1.000000
   24        4.146628   1.000000
   25        6.948970   0.000000
   26        7.729912   0.000000
   27        7.929625   0.000000
   28        8.004051   0.000000
   29        8.195152   0.000000
   30        8.684152   0.000000
   31        9.746388   0.000000
   32       10.712398   0.000000
 
  0.5000000E+00  0.2500000E+00  0.3333333E+00  0.8333333E-01
    1      -52.033170   1.000000
    2      -52.033170   1.000000
    3      -28.500943   1.000000
    4      -28.500943   1.000000
    5      -28.274413   1.000000
    6      -28.274413   1.000000
    7      -28.211667   1.000000
    8      -28.211667   1.000000
    9      -12.149994   1.000000
   10      -12.149994   1.000000
   11      -11.810322   1.000000
   12      -11.810322   1.000000
   13        0.152644   1.000000
   14        0.152644   1.000000
   15        0.469372   1.000000
   16        0.469372   1.000000
   17        1.404796   1.000000
   18        1.404796   1.000000
   19        2.498847   1.000000
   20        2.498847   1.000000
   21        3.047364   1.000000
   22        3.047364   1.000000
   23        3.892715   1.000000
   24        3.892715   1.000000
   25        7.316083   0.000000
   26        7.316083   0.000000
   27        7.930623   0.000000
   28        7.930623   0.000000
   29        8.384517   0.000000
   30        8.384517   0.000000
   31       10.156527   0.000000
   32       10.156527   0.000000
 
  0.5000000E+00  0.5000000E+00  0.3333333E+00  0.2083333E-01
    1      -52.033172   1.000000
    2      -52.033172   1.000000
    3      -28.493935   1.000000
    4      -28.493935   1.000000
    5      -28.291656   1.000000
    6      -28.291656   1.000000
    7      -28.202586   1.000000
    8      -28.202586   1.000000
    9      -12.015331   1.000000
   10      -12.015331   1.000000
   11      -11.941569   1.000000
   12      -11.941569   1.000000
   13        0.115547   1.000000
   14        0.115547   1.000000
   15        0.203091   1.000000
   16        0.203091   1.000000
   17        1.558454   1.000000
   18        1.558454   1.000000
   19        2.557700   1.000000
   20        2.557700   1.000000
   21        3.298079   1.000000
   22        3.298079   1.000000
   23        3.864551   1.000000
   24        3.864551   1.000000
   25        7.790917   0.000000
   26        7.790917   0.000000
   27        7.795003   0.000000
   28        7.795003   0.000000
   29        7.892548   0.000000
   30        7.892548   0.000000
   31       10.813278   0.000000
   32       10.813638   0.000000
 
  0.0000000E+00  0.0000000E+00  0.5000000E+00  0.1041667E-01
    1      -52.023165   1.000000
    2      -52.023165   1.000000
    3      -28.603484   1.000000
    4      -28.603484   1.000000
    5      -28.235134   1.000000
    6      -28.235134   1.000000
    7      -28.220004   1.000000
    8      -28.220004   1.000000
    9      -11.967975   1.000000
   10      -11.967975   1.000000
   11      -11.897098   1.000000
   12      -11.897098   1.000000
   13        0.365129   1.000000
   14        0.365129   1.000000
   15        1.140965   1.000000
   16        1.140965   1.000000
   17        1.231353   1.000000
   18        1.231353   1.000000
   19        2.100568   1.000000
   20        2.100568   1.000000
   21        2.486444   1.000000
   22        2.486444   1.000000
   23        3.427888   1.000000
   24        3.427888   1.000000
   25        7.808297   0.000000
   26        7.808297   0.000000
   27        8.002761   0.000000
   28        8.002761   0.000000
   29        8.515108   0.000000
   30        8.515108   0.000000
   31       10.347616   0.000000
   32       10.347616   0.000000
 
  0.2500000E+00  0.0000000E+00  0.5000000E+00  0.4166667E-01
    1      -52.023162   1.000000
    2      -52.023162   1.000000
    3      -28.609150   1.000000
    4      -28.609150   1.000000
    5      -28.230071   1.000000
    6      -28.230071   1.000000
    7      -28.219551   1.000000
    8      -28.219551   1.000000
    9      -12.180728   1.000000
   10      -12.180728   1.000000
   11      -11.671438   1.000000
   12      -11.671438   1.000000
   13        0.094720   1.000000
   14        0.094720   1.000000
   15        0.777710   1.000000
   16        0.777710   1.000000
   17        1.605941   1.000000
   18        1.605941   1.000000
   19        2.219234   1.000000
   20        2.219234   1.000000
   21        3.068994   1.000000
   22        3.068994   1.000000
   23        3.235513   1.000000
   24        3.235513   1.000000
   25        7.295208   0.000000
   26        7.295208   0.000000
   27        8.015937   0.000000
   28        8.015937   0.000000
   29        8.665713   0.000000
   30        8.665713   0.000000
   31        9.963981   0.000000
   32        9.963981   0.000000
 
  0.5000000E+00  0.0000000E+00  0.5000000E+00  0.2083333E-01
    1      -52.023092   1.000000
    2      -52.023092   1.000000
    3      -28.614617   1.000000
    4      -28.614617   1.000000
    5      -28.225794   1.000000
    6      -28.225794   1.000000
    7      -28.218356   1.000000
    8      -28.218356   1.000000
    9      -12.278178   1.000000
   10      -12.278178   1.000000
   11      -11.559963   1.000000
   12      -11.559963   1.000000
   13       -0.200747   1.000000
   14       -0.200747   1.000000
   15        0.873962   1.000000
   16        0.873962   1.000000
   17        1.584332   1.000000
   18        1.584332   1.000000
   19        2.472816   1.000000
   20        2.472816   1.000000
   21        2.810302   1.000000
   22        2.810302   1.000000
   23        3.817842   1.000000
   24        3.817842   1.000000
   25        6.751636   0.000000
   26        6.751636   0.000000
   27        8.027070   0.000000
   28        8.027070   0.000000
   29        8.753731   0.000000
   30        8.753731   0.000000
   31        9.777007   0.000000
   32        9.777007   0.000000
 
  0.2500000E+00  0.2500000E+00  0.5000000E+00  0.4166667E-01
    1      -52.023100   1.000000
    2      -52.023096   1.000000
    3      -28.613354   1.000000
    4      -28.604377   1.000000
    5      -28.236241   1.000000
    6      -28.224763   1.000000
    7      -28.220784   1.000000
    8      -28.219369   1.000000
    9      -12.281288   1.000000
   10      -12.014857   1.000000
   11      -11.838888   1.000000
   12      -11.556643   1.000000
   13       -0.183315   1.000000
   14        0.461596   1.000000
   15        0.576053   1.000000
   16        0.692683   1.000000
   17        0.877505   1.000000
   18        2.105887   1.000000
   19        2.232535   1.000000
   20        2.237224   1.000000
   21        3.007462   1.000000
   22        3.294921   1.000000
   23        3.470444   1.000000
   24        3.662438   1.000000
   25        6.946119   0.000000
   26        7.614798   0.000000
   27        8.014235   0.000000
   28        8.023577   0.000000
   29        8.130421   0.000000
   30        8.847842   0.000000
   31        9.689899   0.000000
   32       10.698637   0.000000
 
  0.5000000E+00  0.2500000E+00  0.5000000E+00  0.4166667E-01
    1      -52.023083   1.000000
    2      -52.023083   1.000000
    3      -28.608752   1.000000
    4      -28.608752   1.000000
    5      -28.231140   1.000000
    6      -28.231140   1.000000
    7      -28.220301   1.000000
    8      -28.220301   1.000000
    9      -12.192356   1.000000
   10      -12.192356   1.000000
   11      -11.647650   1.000000
   12      -11.647650   1.000000
   13       -0.115077   1.000000
   14       -0.115077   1.000000
   15        0.688730   1.000000
   16        0.688730   1.000000
   17        1.394886   1.000000
   18        1.394886   1.000000
   19        2.211176   1.000000
   20        2.211176   1.000000
   21        3.327669   1.000000
   22        3.327669   1.000000
   23        3.974340   1.000000
   24        3.974340   1.000000
   25        7.012579   0.000000
   26        7.012579   0.000000
   27        8.036855   0.000000
   28        8.036855   0.000000
   29        8.493002   0.000000
   30        8.493002   0.000000
   31       10.054887   0.000000
   32       10.054887   0.000000
 
  0.5000000E+00  0.5000000E+00  0.5000000E+00  0.1041667E-01
    1      -52.023088   1.000000
    2      -52.023088   1.000000
    3      -28.602675   1.000000
    4      -28.602675   1.000000
    5      -28.237376   1.000000
    6      -28.237376   1.000000
    7      -28.221567   1.000000
    8      -28.221567   1.000000
    9      -12.060583   1.000000
   10      -12.060583   1.000000
   11      -11.781378   1.000000
   12      -11.781378   1.000000
   13        0.128932   1.000000
   14        0.128932   1.000000
   15        0.284565   1.000000
   16        0.284565   1.000000
   17        1.319953   1.000000
   18        1.319953   1.000000
   19        2.129739   1.000000
   20        2.129739   1.000000
   21        3.569539   1.000000
   22        3.569539   1.000000
   23        4.179591   1.000000
   24        4.179591   1.000000
   25        7.433925   0.000000
   26        7.433925   0.000000
   27        8.047547   0.000000
   28        8.047547   0.000000
   29        8.059980   0.000000
   30        8.059980   0.000000
   31       10.755814   0.000000
   32       10.755832   0.000000
