       N       E                     dE             d eps       ncg     rms          rms(c)
DAV:   1     0.503214401153E+03    0.50321E+03   -0.26518E+04  1536   0.172E+03
DAV:   2    -0.341581879267E+02   -0.53737E+03   -0.52976E+03  2032   0.459E+02
DAV:   3    -0.703143469325E+02   -0.36156E+02   -0.36129E+02  2352   0.124E+02
DAV:   4    -0.711140076140E+02   -0.79966E+00   -0.79941E+00  2192   0.160E+01
DAV:   5    -0.711354557635E+02   -0.21448E-01   -0.21448E-01  1968   0.210E+00    0.314E+01
DAV:   6    -0.543900171175E+02    0.16745E+02   -0.12905E+02  2032   0.910E+01    0.122E+01
DAV:   7    -0.538778291967E+02    0.51219E+00   -0.21386E+01  1808   0.304E+01    0.854E+00
DAV:   8    -0.539849348281E+02   -0.10711E+00   -0.77368E+00  1808   0.202E+01    0.536E+00
DAV:   9    -0.536787323230E+02    0.30620E+00   -0.16309E+00  1904   0.843E+00    0.208E+00
DAV:  10    -0.536423712312E+02    0.36361E-01   -0.24275E-01  1792   0.413E+00    0.403E-01
DAV:  11    -0.536424457500E+02   -0.74519E-04   -0.13712E-02  1696   0.828E-01    0.102E-01
DAV:  12    -0.536424573733E+02   -0.11623E-04   -0.40517E-04  2080   0.181E-01    0.841E-02
DAV:  13    -0.536424537210E+02    0.36523E-05   -0.30125E-04  1632   0.133E-01    0.149E-02
DAV:  14    -0.536424529584E+02    0.76254E-06   -0.47248E-05  2000   0.344E-02    0.529E-03
DAV:  15    -0.536424529683E+02   -0.98617E-08   -0.40226E-06  1648   0.122E-02
   1 F= -.53642453E+02 E0= -.53642453E+02  d E =-.652742E-18
