 vasp.5.4.4.18Apr17-6-g9f103f2a35 (build Mar 10 2026 18:13:51) complex          
  
 executed on             LinuxIFC date 2026.07.01  04:29:10
 running on   16 total cores
 distrk:  each k-point on   16 cores,    1 groups
 distr:  one band on NCORES_PER_BAND=   1 cores,   16 groups


--------------------------------------------------------------------------------------------------------


 INCAR:
 POTCAR:    PAW_PBE Ti_sv 26Sep2005               
 POTCAR:    PAW_PBE O 08Apr2002                   

 ----------------------------------------------------------------------------- 
|                                                                             |
|           W    W    AA    RRRRR   N    N  II  N    N   GGGG   !!!           |
|           W    W   A  A   R    R  NN   N  II  NN   N  G    G  !!!           |
|           W    W  A    A  R    R  N N  N  II  N N  N  G       !!!           |
|           W WW W  AAAAAA  RRRRR   N  N N  II  N  N N  G  GGG   !            |
|           WW  WW  A    A  R   R   N   NN  II  N   NN  G    G                |
|           W    W  A    A  R    R  N    N  II  N    N   GGGG   !!!           |
|                                                                             |
|      For optimal performance we recommend to set                            |
|        NCORE= 4 - approx SQRT( number of cores)                             |
|      NCORE specifies how many cores store one orbital (NPAR=cpu/NCORE).     |
|      This setting can  greatly improve the performance of VASP for DFT.     |
|      The default,   NCORE=1            might be grossly inefficient         |
|      on modern multi-core architectures or massively parallel machines.     |
|      Do your own testing !!!!                                               |
|      Unfortunately you need to use the default for GW and RPA calculations. |
|      (for HF NCORE is supported but not extensively tested yet)             |
|                                                                             |
 ----------------------------------------------------------------------------- 

 POTCAR:    PAW_PBE Ti_sv 26Sep2005               
   SHA256 =  4d747badb5a5ea28d858fbac70885b3f8929d6fd9e5b0dbe1ecb9878dc164da1 Ti
   COPYR  = (c) Copyright 26Sep2005 Georg Kresse                                
   COPYR  = This file is part of the software VASP. Any use, copying, and all ot
   COPYR  = If you do not have a valid VASP license, you may not use, copy or di
   VRHFIN =Ti: 3p4s3d                                                           
   LEXCH  = PE                                                                  
   EATOM  =  1588.0892 eV,  116.7213 Ry                                         
                                                                                
   TITEL  = PAW_PBE Ti_sv 26Sep2005                                             
   LULTRA =        F    use ultrasoft PP ?                                      
   IUNSCR =        1    unscreen: 0-lin 1-nonlin 2-no                           
   RPACOR =    2.000    partial core radius                                     
   POMASS =   47.880; ZVAL   =   12.000    mass and valenz                      
   RCORE  =    2.300    outmost cutoff radius                                   
   RWIGS  =    2.300; RWIGS  =    1.217    wigner-seitz radius (au A)           
   ENMAX  =  274.610; ENMIN  =  205.957 eV                                      
   ICORE  =        3    local potential                                         
   LCOR   =        T    correct aug charges                                     
   LPAW   =        T    paw PP                                                  
   EAUG   =  482.848                                                            
   RMAX   =    2.348    core radius for proj-oper                               
   RAUG   =    1.300    factor for augmentation sphere                          
   RDEP   =    2.381    radius for radial grids                                 
   RDEPT  =    1.930    core radius for aug-charge                              
                                                                                
   Atomic configuration                                                         
    8 entries                                                                   
     n  l   j            E        occ.                                          
     1  0  0.50     -4865.3608   2.0000                                         
     2  0  0.50      -533.1368   2.0000                                         
     2  1  1.50      -440.5031   6.0000                                         
     3  0  0.50       -59.3186   2.0000                                         
     4  0  0.50        -3.7291   1.0000                                         
     3  1  1.50       -35.7012   6.0000                                         
     3  2  2.50        -1.9157   3.0000                                         
     4  3  2.50        -1.3606   0.0000                                         
   Description                                                                  
     l       E           TYP  RCUT    TYP  RCUT                                 
     0    -59.3185931     23  1.800                                             
     0     -3.7290822     23  2.300                                             
     1    -35.7012045     23  2.300                                             
     1     -1.3605826     23  2.300                                             
     2     -1.9156920     23  2.300                                             
     2     -0.0236318     23  2.300                                             
     3     -1.3605826     23  2.300                                             
  local pseudopotential read in
  partial core-charges read in
  partial kinetic energy density read in
  atomic valenz-charges read in
  non local Contribution for L=           0  read in
    real space projection operators read in
  non local Contribution for L=           0  read in
    real space projection operators read in
  non local Contribution for L=           1  read in
    real space projection operators read in
  non local Contribution for L=           1  read in
    real space projection operators read in
  non local Contribution for L=           2  read in
    real space projection operators read in
  non local Contribution for L=           2  read in
    real space projection operators read in
    PAW grid and wavefunctions read in
 
   number of l-projection  operators is LMAX  =           6
   number of lm-projection operators is LMMAX =          18
 
 POTCAR:    PAW_PBE O 08Apr2002                   
   SHA256 =  818f92134a0a090dccd8ba1447fa70422a3b330e708bb4f08108d8ae51209ddf O/
   COPYR  = (c) Copyright 08Apr2002 Georg Kresse                                
   COPYR  = This file is part of the software VASP. Any use, copying, and all ot
   COPYR  = If you do not have a valid VASP license, you may not use, copy or di
   VRHFIN =O: s2p4                                                              
   LEXCH  = PE                                                                  
   EATOM  =   432.3788 eV,   31.7789 Ry                                         
                                                                                
   TITEL  = PAW_PBE O 08Apr2002                                                 
   LULTRA =        F    use ultrasoft PP ?                                      
   IUNSCR =        1    unscreen: 0-lin 1-nonlin 2-no                           
   RPACOR =    1.200    partial core radius                                     
   POMASS =   16.000; ZVAL   =    6.000    mass and valenz                      
   RCORE  =    1.520    outmost cutoff radius                                   
   RWIGS  =    1.550; RWIGS  =    0.820    wigner-seitz radius (au A)           
   ENMAX  =  400.000; ENMIN  =  300.000 eV                                      
   ICORE  =        2    local potential                                         
   LCOR   =        T    correct aug charges                                     
   LPAW   =        T    paw PP                                                  
   EAUG   =  605.392                                                            
   DEXC   =    0.000                                                            
   RMAX   =    1.553    core radius for proj-oper                               
   RAUG   =    1.300    factor for augmentation sphere                          
   RDEP   =    1.550    radius for radial grids                                 
   RDEPT  =    1.329    core radius for aug-charge                              
                                                                                
   Atomic configuration                                                         
    4 entries                                                                   
     n  l   j            E        occ.                                          
     1  0  0.50      -514.6923   2.0000                                         
     2  0  0.50       -23.9615   2.0000                                         
     2  1  0.50        -9.0305   4.0000                                         
     3  2  1.50        -9.5241   0.0000                                         
   Description                                                                  
     l       E           TYP  RCUT    TYP  RCUT                                 
     0    -23.9615318     23  1.200                                             
     0     -9.5240782     23  1.200                                             
     1     -9.0304911     23  1.520                                             
     1      8.1634956     23  1.520                                             
     2     -9.5240782      7  1.500                                             
  local pseudopotential read in
  partial core-charges read in
  partial kinetic energy density read in
  kinetic energy density of atom read in
  atomic valenz-charges read in
  non local Contribution for L=           0  read in
    real space projection operators read in
  non local Contribution for L=           0  read in
    real space projection operators read in
  non local Contribution for L=           1  read in
    real space projection operators read in
  non local Contribution for L=           1  read in
    real space projection operators read in
    PAW grid and wavefunctions read in
 
   number of l-projection  operators is LMAX  =           4
   number of lm-projection operators is LMMAX =           8
 
  PAW_PBE Ti_sv 26Sep2005               :
 energy of atom  1       EATOM=-1588.0892
 kinetic energy error for atom=    0.0046 (will be added to EATOM!!)
  PAW_PBE O 08Apr2002                   :
 energy of atom  2       EATOM= -432.3788
 kinetic energy error for atom=    0.0224 (will be added to EATOM!!)
 
 
 POSCAR: rutile TiO2 (6-atom primitive cell; a=b=
  positions in cartesian coordinates
  No initial velocities read in
 exchange correlation table for  LEXCH =        8
   RHO(1)=    0.500       N(1)  =     2000
   RHO(2)=  100.500       N(2)  =     4000
 


--------------------------------------------------------------------------------------------------------


 ion  position               nearest neighbor table
   1  0.000  0.000  0.000-   5 1.95   6 1.95   5 1.95   6 1.95   3 1.98   4 1.98
   2  0.500  0.500  0.500-   3 1.95   4 1.95   3 1.95   4 1.95   5 1.98   6 1.98
   3  0.305  0.305  0.000-   2 1.95   2 1.95   1 1.98
   4  0.695  0.695  0.000-   2 1.95   2 1.95   1 1.98
   5  0.805  0.195  0.500-   1 1.95   1 1.95   2 1.98
   6  0.195  0.805  0.500-   1 1.95   1 1.95   2 1.98
 
  LATTYP: Found a simple tetragonal cell.
 ALAT       =     4.5937000000
 C/A-ratio  =     0.6440777587
  
  Lattice vectors:
  
 A1 = (   4.5937000000,   0.0000000000,   0.0000000000)
 A2 = (   0.0000000000,   4.5937000000,   0.0000000000)
 A3 = (   0.0000000000,   0.0000000000,   2.9587000000)


Analysis of symmetry for initial positions (statically):
=====================================================================
 Subroutine PRICEL returns:
 Original cell was already a primitive cell.
 

 Routine SETGRP: Setting up the symmetry group for a 
 simple tetragonal supercell.


 Subroutine GETGRP returns: Found 16 space group operations
 (whereof  8 operations were pure point group operations)
 out of a pool of 16 trial point group operations.


The static configuration has the point symmetry D_2h.
 The point group associated with its full space group is D_4h.


Analysis of symmetry for dynamics (positions and initial velocities):
=====================================================================
 Subroutine PRICEL returns:
 Original cell was already a primitive cell.
 

 Routine SETGRP: Setting up the symmetry group for a 
 simple tetragonal supercell.


 Subroutine GETGRP returns: Found 16 space group operations
 (whereof  8 operations were pure point group operations)
 out of a pool of 16 trial point group operations.


The dynamic configuration has the point symmetry D_2h.
 The point group associated with its full space group is D_4h.


 Subroutine INISYM returns: Found 16 space group operations
 (whereof  8 operations are pure point group operations),
 and found     1 'primitive' translations

 
 
 KPOINTS: Gamma-centered 4x4x6 mesh               

Automatic generation of k-mesh.
Space group operators:
 irot       det(A)        alpha          n_x          n_y          n_z        tau_x        tau_y        tau_z
    1     1.000000     0.000000     1.000000     0.000000     0.000000     0.000000     0.000000     0.000000
    2    -1.000000     0.000000     1.000000     0.000000     0.000000     0.000000     0.000000     0.000000
    3     1.000000   179.999999     0.000000     0.000000     1.000000     0.000000     0.000000     0.000000
    4    -1.000000   179.999999     0.000000     0.000000     1.000000     0.000000     0.000000     0.000000
    5     1.000000   180.000000     0.707107     0.707107     0.000000     0.000000     0.000000     0.000000
    6    -1.000000   180.000000     0.707107     0.707107     0.000000     0.000000     0.000000     0.000000
    7     1.000000   180.000000     0.707107    -0.707107     0.000000     0.000000     0.000000     0.000000
    8    -1.000000   180.000000     0.707107    -0.707107     0.000000     0.000000     0.000000     0.000000
    9     1.000000    90.000000     0.000000     0.000000    -1.000000     0.500000     0.500000     0.500000
   10    -1.000000    90.000000     0.000000     0.000000    -1.000000     0.500000     0.500000     0.500000
   11     1.000000    90.000000     0.000000     0.000000     1.000000     0.500000     0.500000     0.500000
   12    -1.000000    90.000000     0.000000     0.000000     1.000000     0.500000     0.500000     0.500000
   13     1.000000   180.000000     0.000000     1.000000     0.000000     0.500000     0.500000     0.500000
   14    -1.000000   180.000000     0.000000     1.000000     0.000000     0.500000     0.500000     0.500000
   15     1.000000   180.000000     1.000000     0.000000     0.000000     0.500000     0.500000     0.500000
   16    -1.000000   180.000000     1.000000     0.000000     0.000000     0.500000     0.500000     0.500000
 
 Subroutine IBZKPT returns following result:
 ===========================================
 
 Found     24 irreducible k-points:
 
 Following reciprocal coordinates:
            Coordinates               Weight
  0.000000  0.000000  0.000000      1.000000
  0.250000  0.000000  0.000000      4.000000
  0.500000  0.000000  0.000000      2.000000
  0.250000  0.250000  0.000000      4.000000
  0.500000  0.250000  0.000000      4.000000
  0.500000  0.500000  0.000000      1.000000
  0.000000  0.000000  0.166667      2.000000
  0.250000  0.000000  0.166667      8.000000
  0.500000  0.000000  0.166667      4.000000
  0.250000  0.250000  0.166667      8.000000
  0.500000  0.250000  0.166667      8.000000
  0.500000  0.500000  0.166667      2.000000
  0.000000  0.000000  0.333333      2.000000
  0.250000  0.000000  0.333333      8.000000
  0.500000  0.000000  0.333333      4.000000
  0.250000  0.250000  0.333333      8.000000
  0.500000  0.250000  0.333333      8.000000
  0.500000  0.500000  0.333333      2.000000
  0.000000  0.000000  0.500000      1.000000
  0.250000  0.000000  0.500000      4.000000
  0.500000  0.000000  0.500000      2.000000
  0.250000  0.250000  0.500000      4.000000
  0.500000  0.250000  0.500000      4.000000
  0.500000  0.500000  0.500000      1.000000
 
 Following cartesian coordinates:
            Coordinates               Weight
  0.000000  0.000000  0.000000      1.000000
  0.054422  0.000000  0.000000      4.000000
  0.108845  0.000000  0.000000      2.000000
  0.054422  0.054422  0.000000      4.000000
  0.108845  0.054422  0.000000      4.000000
  0.108845  0.108845  0.000000      1.000000
  0.000000  0.000000  0.056331      2.000000
  0.054422  0.000000  0.056331      8.000000
  0.108845  0.000000  0.056331      4.000000
  0.054422  0.054422  0.056331      8.000000
  0.108845  0.054422  0.056331      8.000000
  0.108845  0.108845  0.056331      2.000000
  0.000000  0.000000  0.112662      2.000000
  0.054422  0.000000  0.112662      8.000000
  0.108845  0.000000  0.112662      4.000000
  0.054422  0.054422  0.112662      8.000000
  0.108845  0.054422  0.112662      8.000000
  0.108845  0.108845  0.112662      2.000000
  0.000000  0.000000  0.168993      1.000000
  0.054422  0.000000  0.168993      4.000000
  0.108845  0.000000  0.168993      2.000000
  0.054422  0.054422  0.168993      4.000000
  0.108845  0.054422  0.168993      4.000000
  0.108845  0.108845  0.168993      1.000000
 


--------------------------------------------------------------------------------------------------------




 Dimension of arrays:
   k-points           NKPTS =     24   k-points in BZ     NKDIM =     24   number of bands    NBANDS=     32
   number of dos      NEDOS =    301   number of ions     NIONS =      6
   non local maximal  LDIM  =      6   non local SUM 2l+1 LMDIM =     18
   total plane-waves  NPLWV =  31104
   max r-space proj   IRMAX =      1   max aug-charges    IRDMAX=  19539
   dimension x,y,z NGX =    36 NGY =   36 NGZ =   24
   dimension x,y,z NGXF=    72 NGYF=   72 NGZF=   48
   support grid    NGXF=    72 NGYF=   72 NGZF=   48
   ions per type =               2   4
   NGX,Y,Z   is equivalent  to a cutoff of  13.03, 13.03, 13.49 a.u.
   NGXF,Y,Z  is equivalent  to a cutoff of  26.06, 26.06, 26.97 a.u.

 SYSTEM =  rutile TiO2 (PBE band gap)              
 POSCAR =  rutile TiO2 (6-atom primitive cell; a=b=

 Startparameter for this run:
   NWRITE =      2    write-flag & timer
   PREC   = accura    normal or accurate (medium, high low for compatibility)
   ISTART =      0    job   : 0-new  1-cont  2-samecut
   ICHARG =      2    charge: 1-file 2-atom 10-const
   ISPIN  =      1    spin polarized calculation?
   LNONCOLLINEAR =      F non collinear calculations
   LSORBIT =      F    spin-orbit coupling
   INIWAV =      1    electr: 0-lowe 1-rand  2-diag
   LASPH  =      F    aspherical Exc in radial PAW
   METAGGA=      F    non-selfconsistent MetaGGA calc.

 Electronic Relaxation 1
   ENCUT  =  500.0 eV  36.75 Ry    6.06 a.u.   8.38  8.38  5.39*2*pi/ulx,y,z
   ENINI  =  500.0     initial cutoff
   ENAUG  =  605.4 eV  augmentation charge cutoff
   NELM   =    200;   NELMIN=  6; NELMDL= -5     # of ELM steps 
   EDIFF  = 0.1E-05   stopping-criterion for ELM
   LREAL  =      F    real-space projection
   NLSPLINE    = F    spline interpolate recip. space projectors
   LCOMPAT=      F    compatible to vasp.4.4
   GGA_COMPAT  = T    GGA compatible to vasp.4.4-vasp.4.6
   LMAXPAW     = -100 max onsite density
   LMAXMIX     =    2 max onsite mixed and CHGCAR
   VOSKOWN=      0    Vosko Wilk Nusair interpolation
   ROPT   =    0.00000   0.00000
 Ionic relaxation
   EDIFFG = 0.1E-04   stopping-criterion for IOM
   NSW    =      0    number of steps for IOM
   NBLOCK =      1;   KBLOCK =      1    inner block; outer block 
   IBRION =     -1    ionic relax: 0-MD 1-quasi-New 2-CG
   NFREE  =      0    steps in history (QN), initial steepest desc. (CG)
   ISIF   =      2    stress and relaxation
   IWAVPR =     10    prediction:  0-non 1-charg 2-wave 3-comb
   ISYM   =      2    0-nonsym 1-usesym 2-fastsym
   LCORR  =      T    Harris-Foulkes like correction to forces

   POTIM  = 0.5000    time-step for ionic-motion
   TEIN   =    0.0    initial temperature
   TEBEG  =    0.0;   TEEND  =   0.0 temperature during run
   SMASS  =  -3.00    Nose mass-parameter (am)
   estimated Nose-frequenzy (Omega)   =  0.10E-29 period in steps =****** mass=  -0.482E-27a.u.
   SCALEE = 1.0000    scale energy and forces
   NPACO  =    256;   APACO  = 16.0  distance and # of slots for P.C.
   PSTRESS=    0.0 pullay stress

  Mass of Ions in am
   POMASS =  47.88 16.00
  Ionic Valenz
   ZVAL   =  12.00  6.00
  Atomic Wigner-Seitz radii
   RWIGS  =  -1.00 -1.00
  virtual crystal weights 
   VCA    =   1.00  1.00
   NELECT =      48.0000    total number of electrons
   NUPDOWN=      -1.0000    fix difference up-down

 DOS related values:
   EMIN   =  10.00;   EMAX   =-10.00  energy-range for DOS
   EFERMI =   0.00
   ISMEAR =     0;   SIGMA  =   0.05  broadening in eV -4-tet -1-fermi 0-gaus

 Electronic relaxation 2 (details)
   IALGO  =     38    algorithm
   LDIAG  =      T    sub-space diagonalisation (order eigenvalues)
   LSUBROT=      F    optimize rotation matrix (better conditioning)
   TURBO    =      0    0=normal 1=particle mesh
   IRESTART =      0    0=no restart 2=restart with 2 vectors
   NREBOOT  =      0    no. of reboots
   NMIN     =      0    reboot dimension
   EREF     =   0.00    reference energy to select bands
   IMIX   =      4    mixing-type and parameters
     AMIX     =   0.40;   BMIX     =  1.00
     AMIX_MAG =   1.60;   BMIX_MAG =  1.00
     AMIN     =   0.10
     WC   =   100.;   INIMIX=   1;  MIXPRE=   1;  MAXMIX= -45

 Intra band minimization:
   WEIMIN = 0.0000     energy-eigenvalue tresh-hold
   EBREAK =  0.78E-08  absolut break condition
   DEPER  =   0.30     relativ break condition  

   TIME   =   0.40     timestep for ELM

  volume/ion in A,a.u.               =      10.41        70.22
  Fermi-wavevector in a.u.,A,eV,Ry     =   1.499730  2.834079 30.602103  2.249191
  Thomas-Fermi vector in A             =   2.611322
 
 Write flags
   LWAVE        =      F    write WAVECAR
   LDOWNSAMPLE  =      F    k-point downsampling of WAVECAR
   LCHARG       =      F    write CHGCAR
   LVTOT        =      F    write LOCPOT, total local potential
   LVHAR        =      F    write LOCPOT, Hartree potential only
   LELF         =      F    write electronic localiz. function (ELF)
   LORBIT       =      0    0 simple, 1 ext, 2 COOP (PROOUT), +10 PAW based schemes


 Dipole corrections
   LMONO  =      F    monopole corrections only (constant potential shift)
   LDIPOL =      F    correct potential (dipole corrections)
   IDIPOL =      0    1-x, 2-y, 3-z, 4-all directions 
   EPSILON=  1.0000000 bulk dielectric constant

 Exchange correlation treatment:
   GGA     =    --    GGA type
   LEXCH   =     8    internal setting for exchange type
   VOSKOWN=      0    Vosko Wilk Nusair interpolation
   LHFCALC =     F    Hartree Fock is set to
   LHFONE  =     F    Hartree Fock one center treatment
   AEXX    =    0.0000 exact exchange contribution

 Linear response parameters
   LEPSILON=     F    determine dielectric tensor
   LRPA    =     F    only Hartree local field effects (RPA)
   LNABLA  =     F    use nabla operator in PAW spheres
   LVEL    =     F    velocity operator in full k-point grid
   LINTERFAST=   F  fast interpolation
   KINTER  =     0    interpolate to denser k-point grid
   CSHIFT  =0.1000    complex shift for real part using Kramers Kronig
   OMEGAMAX=  -1.0    maximum frequency
   DEG_THRESHOLD= 0.2000000E-02 threshold for treating states as degnerate
   RTIME   =   -0.100 relaxation time in fs
  (WPLASMAI=    0.000 imaginary part of plasma frequency in eV, 0.658/RTIME)
   DFIELD  = 0.0000000 0.0000000 0.0000000 field for delta impulse in time
 
 Orbital magnetization related:
   ORBITALMAG=     F  switch on orbital magnetization
   LCHIMAG   =     F  perturbation theory with respect to B field
   DQ        =  0.001000  dq finite difference perturbation B field
   LLRAUG    =     F  two centre corrections for induced B field



--------------------------------------------------------------------------------------------------------


 Static calculation
 charge density and potential will be updated during run
 non-spin polarized calculation
 Variant of blocked Davidson
 Davidson routine will perform the subspace rotation
 perform sub-space diagonalisation
    after iterative eigenvector-optimisation
 modified Broyden-mixing scheme, WC =      100.0
 initial mixing is a Kerker type mixing with AMIX =  0.4000 and BMIX =      1.0000
 Hartree-type preconditioning will be used
 using additional bands            8
 reciprocal scheme for non local part
 use partial core corrections
 calculate Harris-corrections to forces 
   (improved forces if not selfconsistent)
 use gradient corrections 
 use of overlap-Matrix (Vanderbilt PP)
 Gauss-broadening in eV      SIGMA  =   0.05


--------------------------------------------------------------------------------------------------------


  energy-cutoff  :      500.00
  volume of cell :       62.43
      direct lattice vectors                 reciprocal lattice vectors
     4.593700000  0.000000000  0.000000000     0.217689444  0.000000000  0.000000000
     0.000000000  4.593700000  0.000000000     0.000000000  0.217689444  0.000000000
     0.000000000  0.000000000  2.958700000     0.000000000  0.000000000  0.337986278

  length of vectors
     4.593700000  4.593700000  2.958700000     0.217689444  0.217689444  0.337986278


 
 k-points in units of 2pi/SCALE and weight: Gamma-centered 4x4x6 mesh               
   0.00000000  0.00000000  0.00000000       0.010
   0.05442236  0.00000000  0.00000000       0.042
   0.10884472  0.00000000  0.00000000       0.021
   0.05442236  0.05442236  0.00000000       0.042
   0.10884472  0.05442236  0.00000000       0.042
   0.10884472  0.10884472  0.00000000       0.010
   0.00000000  0.00000000  0.05633105       0.021
   0.05442236  0.00000000  0.05633105       0.083
   0.10884472  0.00000000  0.05633105       0.042
   0.05442236  0.05442236  0.05633105       0.083
   0.10884472  0.05442236  0.05633105       0.083
   0.10884472  0.10884472  0.05633105       0.021
   0.00000000  0.00000000  0.11266209       0.021
   0.05442236  0.00000000  0.11266209       0.083
   0.10884472  0.00000000  0.11266209       0.042
   0.05442236  0.05442236  0.11266209       0.083
   0.10884472  0.05442236  0.11266209       0.083
   0.10884472  0.10884472  0.11266209       0.021
   0.00000000  0.00000000  0.16899314       0.010
   0.05442236  0.00000000  0.16899314       0.042
   0.10884472  0.00000000  0.16899314       0.021
   0.05442236  0.05442236  0.16899314       0.042
   0.10884472  0.05442236  0.16899314       0.042
   0.10884472  0.10884472  0.16899314       0.010
 
 k-points in reciprocal lattice and weights: Gamma-centered 4x4x6 mesh               
   0.00000000  0.00000000  0.00000000       0.010
   0.25000000  0.00000000  0.00000000       0.042
   0.50000000  0.00000000  0.00000000       0.021
   0.25000000  0.25000000  0.00000000       0.042
   0.50000000  0.25000000  0.00000000       0.042
   0.50000000  0.50000000  0.00000000       0.010
   0.00000000  0.00000000  0.16666667       0.021
   0.25000000  0.00000000  0.16666667       0.083
   0.50000000  0.00000000  0.16666667       0.042
   0.25000000  0.25000000  0.16666667       0.083
   0.50000000  0.25000000  0.16666667       0.083
   0.50000000  0.50000000  0.16666667       0.021
   0.00000000  0.00000000  0.33333333       0.021
   0.25000000  0.00000000  0.33333333       0.083
   0.50000000  0.00000000  0.33333333       0.042
   0.25000000  0.25000000  0.33333333       0.083
   0.50000000  0.25000000  0.33333333       0.083
   0.50000000  0.50000000  0.33333333       0.021
   0.00000000  0.00000000  0.50000000       0.010
   0.25000000  0.00000000  0.50000000       0.042
   0.50000000  0.00000000  0.50000000       0.021
   0.25000000  0.25000000  0.50000000       0.042
   0.50000000  0.25000000  0.50000000       0.042
   0.50000000  0.50000000  0.50000000       0.010
 
 position of ions in fractional coordinates (direct lattice) 
   0.00000000  0.00000000  0.00000000
   0.50000000  0.50000000  0.50000000
   0.30478000  0.30478000  0.00000000
   0.69522000  0.69522000  0.00000000
   0.80478000  0.19522000  0.50000000
   0.19522000  0.80478000  0.50000000
 
 position of ions in cartesian coordinates  (Angst):
   0.00000000  0.00000000  0.00000000
   2.29685000  2.29685000  1.47935000
   1.40006789  1.40006789  0.00000000
   3.19363211  3.19363211  0.00000000
   3.69691789  0.89678211  1.47935000
   0.89678211  3.69691789  1.47935000
 


--------------------------------------------------------------------------------------------------------


 k-point  1 :   0.0000 0.0000 0.0000  plane waves:    1559
 k-point  2 :   0.2500 0.0000 0.0000  plane waves:    1589
 k-point  3 :   0.5000 0.0000 0.0000  plane waves:    1612
 k-point  4 :   0.2500 0.2500 0.0000  plane waves:    1582
 k-point  5 :   0.5000 0.2500 0.0000  plane waves:    1606
 k-point  6 :   0.5000 0.5000 0.0000  plane waves:    1568
 k-point  7 :   0.0000 0.0000 0.1667  plane waves:    1603
 k-point  8 :   0.2500 0.0000 0.1667  plane waves:    1586
 k-point  9 :   0.5000 0.0000 0.1667  plane waves:    1590
 k-point 10 :   0.2500 0.2500 0.1667  plane waves:    1592
 k-point 11 :   0.5000 0.2500 0.1667  plane waves:    1594
 k-point 12 :   0.5000 0.5000 0.1667  plane waves:    1584
 k-point 13 :   0.0000 0.0000 0.3333  plane waves:    1591
 k-point 14 :   0.2500 0.0000 0.3333  plane waves:    1594
 k-point 15 :   0.5000 0.0000 0.3333  plane waves:    1580
 k-point 16 :   0.2500 0.2500 0.3333  plane waves:    1576
 k-point 17 :   0.5000 0.2500 0.3333  plane waves:    1578
 k-point 18 :   0.5000 0.5000 0.3333  plane waves:    1588
 k-point 19 :   0.0000 0.0000 0.5000  plane waves:    1586
 k-point 20 :   0.2500 0.0000 0.5000  plane waves:    1604
 k-point 21 :   0.5000 0.0000 0.5000  plane waves:    1568
 k-point 22 :   0.2500 0.2500 0.5000  plane waves:    1570
 k-point 23 :   0.5000 0.2500 0.5000  plane waves:    1568
 k-point 24 :   0.5000 0.5000 0.5000  plane waves:    1576

 maximum and minimum number of plane-waves per node :      1612     1559

 maximum number of plane-waves:      1612
 maximum index in each direction: 
   IXMAX=    8   IYMAX=    8   IZMAX=    5
   IXMIN=   -8   IYMIN=   -8   IZMIN=   -5


 serial   3D FFT for wavefunctions
 parallel 3D FFT for charge:
    minimum data exchange during FFTs selected (reduces bandwidth)


 total amount of memory used by VASP MPI-rank0    45708. kBytes
=======================================================================

   base      :      30000. kBytes
   nonl-proj :      11324. kBytes
   fftplans  :        728. kBytes
   grid      :       2261. kBytes
   one-center:         93. kBytes
   wavefun   :       1302. kBytes
 
     INWAV:  cpu time    0.0000: real time    0.0000
 Broyden mixing: mesh for mixing (old mesh)
   NGX = 17   NGY = 17   NGZ = 11
  (NGX  = 72   NGY  = 72   NGZ  = 48)
  gives a total of   3179 points

 initial charge density was supplied:
 charge density of overlapping atoms calculated
 number of electron      48.0000000 magnetization 
 keeping initial charge density in first step


--------------------------------------------------------------------------------------------------------


 Maximum index for augmentation-charges         1559 (set IRDMAX)


--------------------------------------------------------------------------------------------------------


 First call to EWALD:  gamma=   0.447
 Maximum number of real-space cells 2x 2x 4
 Maximum number of reciprocal cells 3x 3x 2

    FEWALD:  cpu time    0.0004: real time    0.0006


--------------------------------------- Iteration      1(   1)  ---------------------------------------


    POTLOK:  cpu time    0.0049: real time    0.0063
    SETDIJ:  cpu time    0.0018: real time    0.0020
     EDDAV:  cpu time    0.1104: real time    0.1206
       DOS:  cpu time    0.0003: real time    0.0004
    --------------------------------------------
      LOOP:  cpu time    0.1174: real time    0.1292

 eigenvalue-minimisations  :  1536
 total energy-change (2. order) : 0.5032144E+03  (-0.2651767E+04)
 number of electron      48.0000000 magnetization 
 augmentation part       48.0000000 magnetization 

 Free energy of the ion-electron system (eV)
  ---------------------------------------------------
  alpha Z        PSCENC =       198.61100991
  Ewald energy   TEWEN  =     -3596.18025831
  -Hartree energ DENC   =     -1255.84276384
  -exchange      EXHF   =         0.00000000
  -V(xc)+E(xc)   XCENC  =       235.27241290
  PAW double counting   =      3915.32828904    -3883.35319469
  entropy T*S    EENTRO =        -0.00244107
  eigenvalues    EBANDS =       -16.21354236
  atomic energy  EATOM  =      4905.59488958
  Solvation  Ediel_sol  =         0.00000000
  ---------------------------------------------------
  free energy    TOTEN  =       503.21440115 eV

  energy without entropy =      503.21684222  energy(sigma->0) =      503.21562169


--------------------------------------------------------------------------------------------------------




--------------------------------------- Iteration      1(   2)  ---------------------------------------


     EDDAV:  cpu time    0.1321: real time    0.1325
       DOS:  cpu time    0.0001: real time    0.0001
    --------------------------------------------
      LOOP:  cpu time    0.1322: real time    0.1325

 eigenvalue-minimisations  :  2032
 total energy-change (2. order) :-0.5373726E+03  (-0.5297642E+03)
 number of electron      48.0000000 magnetization 
 augmentation part       48.0000000 magnetization 

 Free energy of the ion-electron system (eV)
  ---------------------------------------------------
  alpha Z        PSCENC =       198.61100991
  Ewald energy   TEWEN  =     -3596.18025831
  -Hartree energ DENC   =     -1255.84276384
  -exchange      EXHF   =         0.00000000
  -V(xc)+E(xc)   XCENC  =       235.27241290
  PAW double counting   =      3915.32828904    -3883.35319469
  entropy T*S    EENTRO =        -0.00000000
  eigenvalues    EBANDS =      -553.58857251
  atomic energy  EATOM  =      4905.59488958
  Solvation  Ediel_sol  =         0.00000000
  ---------------------------------------------------
  free energy    TOTEN  =       -34.15818793 eV

  energy without entropy =      -34.15818793  energy(sigma->0) =      -34.15818793


--------------------------------------------------------------------------------------------------------




--------------------------------------- Iteration      1(   3)  ---------------------------------------


     EDDAV:  cpu time    0.1569: real time    0.1578
       DOS:  cpu time    0.0001: real time    0.0001
    --------------------------------------------
      LOOP:  cpu time    0.1570: real time    0.1578

 eigenvalue-minimisations  :  2352
 total energy-change (2. order) :-0.3615616E+02  (-0.3612873E+02)
 number of electron      48.0000000 magnetization 
 augmentation part       48.0000000 magnetization 

 Free energy of the ion-electron system (eV)
  ---------------------------------------------------
  alpha Z        PSCENC =       198.61100991
  Ewald energy   TEWEN  =     -3596.18025831
  -Hartree energ DENC   =     -1255.84276384
  -exchange      EXHF   =         0.00000000
  -V(xc)+E(xc)   XCENC  =       235.27241290
  PAW double counting   =      3915.32828904    -3883.35319469
  entropy T*S    EENTRO =        -0.00000000
  eigenvalues    EBANDS =      -589.74473152
  atomic energy  EATOM  =      4905.59488958
  Solvation  Ediel_sol  =         0.00000000
  ---------------------------------------------------
  free energy    TOTEN  =       -70.31434693 eV

  energy without entropy =      -70.31434693  energy(sigma->0) =      -70.31434693


--------------------------------------------------------------------------------------------------------




--------------------------------------- Iteration      1(   4)  ---------------------------------------


     EDDAV:  cpu time    0.1430: real time    0.1431
       DOS:  cpu time    0.0001: real time    0.0001
    --------------------------------------------
      LOOP:  cpu time    0.1431: real time    0.1432

 eigenvalue-minimisations  :  2192
 total energy-change (2. order) :-0.7996607E+00  (-0.7994073E+00)
 number of electron      48.0000000 magnetization 
 augmentation part       48.0000000 magnetization 

 Free energy of the ion-electron system (eV)
  ---------------------------------------------------
  alpha Z        PSCENC =       198.61100991
  Ewald energy   TEWEN  =     -3596.18025831
  -Hartree energ DENC   =     -1255.84276384
  -exchange      EXHF   =         0.00000000
  -V(xc)+E(xc)   XCENC  =       235.27241290
  PAW double counting   =      3915.32828904    -3883.35319469
  entropy T*S    EENTRO =        -0.00000000
  eigenvalues    EBANDS =      -590.54439220
  atomic energy  EATOM  =      4905.59488958
  Solvation  Ediel_sol  =         0.00000000
  ---------------------------------------------------
  free energy    TOTEN  =       -71.11400761 eV

  energy without entropy =      -71.11400761  energy(sigma->0) =      -71.11400761


--------------------------------------------------------------------------------------------------------




--------------------------------------- Iteration      1(   5)  ---------------------------------------


     EDDAV:  cpu time    0.1261: real time    0.1262
       DOS:  cpu time    0.0001: real time    0.0001
    CHARGE:  cpu time    0.0073: real time    0.0073
    MIXING:  cpu time    0.0003: real time    0.0011
    --------------------------------------------
      LOOP:  cpu time    0.1338: real time    0.1347

 eigenvalue-minimisations  :  1968
 total energy-change (2. order) :-0.2144815E-01  (-0.2144796E-01)
 number of electron      48.0000026 magnetization 
 augmentation part        9.8835251 magnetization 

 Broyden mixing:
  rms(total) = 0.31423E+01    rms(broyden)= 0.31420E+01
  rms(prec ) = 0.58068E+01
  weight for this iteration     100.00

 Free energy of the ion-electron system (eV)
  ---------------------------------------------------
  alpha Z        PSCENC =       198.61100991
  Ewald energy   TEWEN  =     -3596.18025831
  -Hartree energ DENC   =     -1255.84276384
  -exchange      EXHF   =         0.00000000
  -V(xc)+E(xc)   XCENC  =       235.27241290
  PAW double counting   =      3915.32828904    -3883.35319469
  entropy T*S    EENTRO =        -0.00000000
  eigenvalues    EBANDS =      -590.56584035
  atomic energy  EATOM  =      4905.59488958
  Solvation  Ediel_sol  =         0.00000000
  ---------------------------------------------------
  free energy    TOTEN  =       -71.13545576 eV

  energy without entropy =      -71.13545576  energy(sigma->0) =      -71.13545576


--------------------------------------------------------------------------------------------------------




--------------------------------------- Iteration      1(   6)  ---------------------------------------


    POTLOK:  cpu time    0.0033: real time    0.0033
    SETDIJ:  cpu time    0.0010: real time    0.0010
     EDDAV:  cpu time    0.1303: real time    0.1304
       DOS:  cpu time    0.0001: real time    0.0001
    CHARGE:  cpu time    0.0066: real time    0.0066
    MIXING:  cpu time    0.0002: real time    0.0002
    --------------------------------------------
      LOOP:  cpu time    0.1415: real time    0.1416

 eigenvalue-minimisations  :  2032
 total energy-change (2. order) : 0.1674544E+02  (-0.1290545E+02)
 number of electron      48.0000020 magnetization 
 augmentation part        9.9447776 magnetization 

 Broyden mixing:
  rms(total) = 0.12152E+01    rms(broyden)= 0.12144E+01
  rms(prec ) = 0.21227E+01
  weight for this iteration     100.00

 eigenvalues of (default mixing * dielectric matrix)
  average eigenvalue GAMMA=   0.7950
  0.7950

 Free energy of the ion-electron system (eV)
  ---------------------------------------------------
  alpha Z        PSCENC =       198.61100991
  Ewald energy   TEWEN  =     -3596.18025831
  -Hartree energ DENC   =     -1241.41591061
  -exchange      EXHF   =         0.00000000
  -V(xc)+E(xc)   XCENC  =       237.19972989
  PAW double counting   =      4488.28441024    -4462.87612602
  entropy T*S    EENTRO =        -0.00000000
  eigenvalues    EBANDS =      -583.60776178
  atomic energy  EATOM  =      4905.59488958
  Solvation  Ediel_sol  =         0.00000000
  ---------------------------------------------------
  free energy    TOTEN  =       -54.39001712 eV

  energy without entropy =      -54.39001712  energy(sigma->0) =      -54.39001712


--------------------------------------------------------------------------------------------------------




--------------------------------------- Iteration      1(   7)  ---------------------------------------


    POTLOK:  cpu time    0.0033: real time    0.0034
    SETDIJ:  cpu time    0.0009: real time    0.0009
     EDDAV:  cpu time    0.1153: real time    0.1153
       DOS:  cpu time    0.0001: real time    0.0001
    CHARGE:  cpu time    0.0065: real time    0.0065
    MIXING:  cpu time    0.0002: real time    0.0002
    --------------------------------------------
      LOOP:  cpu time    0.1263: real time    0.1264

 eigenvalue-minimisations  :  1808
 total energy-change (2. order) : 0.5121879E+00  (-0.2138600E+01)
 number of electron      48.0000022 magnetization 
 augmentation part        9.4640794 magnetization 

 Broyden mixing:
  rms(total) = 0.85363E+00    rms(broyden)= 0.85358E+00
  rms(prec ) = 0.11384E+01
  weight for this iteration     100.00

 eigenvalues of (default mixing * dielectric matrix)
  average eigenvalue GAMMA=   2.2522
  0.6863  3.8181

 Free energy of the ion-electron system (eV)
  ---------------------------------------------------
  alpha Z        PSCENC =       198.61100991
  Ewald energy   TEWEN  =     -3596.18025831
  -Hartree energ DENC   =     -1242.92969011
  -exchange      EXHF   =         0.00000000
  -V(xc)+E(xc)   XCENC  =       236.59008693
  PAW double counting   =      4745.12378147    -4716.52206314
  entropy T*S    EENTRO =        -0.00000000
  eigenvalues    EBANDS =      -584.16558551
  atomic energy  EATOM  =      4905.59488958
  Solvation  Ediel_sol  =         0.00000000
  ---------------------------------------------------
  free energy    TOTEN  =       -53.87782920 eV

  energy without entropy =      -53.87782920  energy(sigma->0) =      -53.87782920


--------------------------------------------------------------------------------------------------------




--------------------------------------- Iteration      1(   8)  ---------------------------------------


    POTLOK:  cpu time    0.0033: real time    0.0034
    SETDIJ:  cpu time    0.0009: real time    0.0009
     EDDAV:  cpu time    0.1162: real time    0.1162
       DOS:  cpu time    0.0001: real time    0.0001
    CHARGE:  cpu time    0.0065: real time    0.0065
    MIXING:  cpu time    0.0002: real time    0.0002
    --------------------------------------------
      LOOP:  cpu time    0.1271: real time    0.1272

 eigenvalue-minimisations  :  1808
 total energy-change (2. order) :-0.1071056E+00  (-0.7736772E+00)
 number of electron      48.0000021 magnetization 
 augmentation part        9.7691616 magnetization 

 Broyden mixing:
  rms(total) = 0.53622E+00    rms(broyden)= 0.53619E+00
  rms(prec ) = 0.10982E+01
  weight for this iteration     100.00

 eigenvalues of (default mixing * dielectric matrix)
  average eigenvalue GAMMA=   1.3529
  2.6589  0.8830  0.5169

 Free energy of the ion-electron system (eV)
  ---------------------------------------------------
  alpha Z        PSCENC =       198.61100991
  Ewald energy   TEWEN  =     -3596.18025831
  -Hartree energ DENC   =     -1225.27010947
  -exchange      EXHF   =         0.00000000
  -V(xc)+E(xc)   XCENC  =       236.05952634
  PAW double counting   =      5423.60329628    -5389.69496866
  entropy T*S    EENTRO =        -0.00000000
  eigenvalues    EBANDS =      -606.70832050
  atomic energy  EATOM  =      4905.59488958
  Solvation  Ediel_sol  =         0.00000000
  ---------------------------------------------------
  free energy    TOTEN  =       -53.98493483 eV

  energy without entropy =      -53.98493483  energy(sigma->0) =      -53.98493483


--------------------------------------------------------------------------------------------------------




--------------------------------------- Iteration      1(   9)  ---------------------------------------


    POTLOK:  cpu time    0.0033: real time    0.0034
    SETDIJ:  cpu time    0.0009: real time    0.0009
     EDDAV:  cpu time    0.1213: real time    0.1213
       DOS:  cpu time    0.0001: real time    0.0001
    CHARGE:  cpu time    0.0065: real time    0.0065
    MIXING:  cpu time    0.0002: real time    0.0002
    --------------------------------------------
      LOOP:  cpu time    0.1322: real time    0.1323

 eigenvalue-minimisations  :  1904
 total energy-change (2. order) : 0.3062025E+00  (-0.1630860E+00)
 number of electron      48.0000021 magnetization 
 augmentation part        9.5800570 magnetization 

 Broyden mixing:
  rms(total) = 0.20836E+00    rms(broyden)= 0.20833E+00
  rms(prec ) = 0.34995E+00
  weight for this iteration     100.00

 eigenvalues of (default mixing * dielectric matrix)
  average eigenvalue GAMMA=   1.5818
  2.4137  2.4137  0.9511  0.5484

 Free energy of the ion-electron system (eV)
  ---------------------------------------------------
  alpha Z        PSCENC =       198.61100991
  Ewald energy   TEWEN  =     -3596.18025831
  -Hartree energ DENC   =     -1229.99230756
  -exchange      EXHF   =         0.00000000
  -V(xc)+E(xc)   XCENC  =       236.14083003
  PAW double counting   =      5575.81762352    -5539.23165285
  entropy T*S    EENTRO =        -0.00000000
  eigenvalues    EBANDS =      -604.43886664
  atomic energy  EATOM  =      4905.59488958
  Solvation  Ediel_sol  =         0.00000000
  ---------------------------------------------------
  free energy    TOTEN  =       -53.67873232 eV

  energy without entropy =      -53.67873232  energy(sigma->0) =      -53.67873232


--------------------------------------------------------------------------------------------------------




--------------------------------------- Iteration      1(  10)  ---------------------------------------


    POTLOK:  cpu time    0.0033: real time    0.0033
    SETDIJ:  cpu time    0.0009: real time    0.0009
     EDDAV:  cpu time    0.1150: real time    0.1150
       DOS:  cpu time    0.0001: real time    0.0001
    CHARGE:  cpu time    0.0066: real time    0.0066
    MIXING:  cpu time    0.0003: real time    0.0007
    --------------------------------------------
      LOOP:  cpu time    0.1261: real time    0.1266

 eigenvalue-minimisations  :  1792
 total energy-change (2. order) : 0.3636109E-01  (-0.2427519E-01)
 number of electron      48.0000021 magnetization 
 augmentation part        9.5114488 magnetization 

 Broyden mixing:
  rms(total) = 0.40280E-01    rms(broyden)= 0.40253E-01
  rms(prec ) = 0.57187E-01
  weight for this iteration     100.00

 eigenvalues of (default mixing * dielectric matrix)
  average eigenvalue GAMMA=   1.3922
  2.4142  2.1703  0.9129  0.9129  0.5506

 Free energy of the ion-electron system (eV)
  ---------------------------------------------------
  alpha Z        PSCENC =       198.61100991
  Ewald energy   TEWEN  =     -3596.18025831
  -Hartree energ DENC   =     -1239.86217319
  -exchange      EXHF   =         0.00000000
  -V(xc)+E(xc)   XCENC  =       236.63209681
  PAW double counting   =      5480.98263175    -5442.86035517
  entropy T*S    EENTRO =        -0.00000000
  eigenvalues    EBANDS =      -596.56021260
  atomic energy  EATOM  =      4905.59488958
  Solvation  Ediel_sol  =         0.00000000
  ---------------------------------------------------
  free energy    TOTEN  =       -53.64237123 eV

  energy without entropy =      -53.64237123  energy(sigma->0) =      -53.64237123


--------------------------------------------------------------------------------------------------------




--------------------------------------- Iteration      1(  11)  ---------------------------------------


    POTLOK:  cpu time    0.0033: real time    0.0034
    SETDIJ:  cpu time    0.0010: real time    0.0010
     EDDAV:  cpu time    0.1101: real time    0.1106
       DOS:  cpu time    0.0001: real time    0.0001
    CHARGE:  cpu time    0.0066: real time    0.0066
    MIXING:  cpu time    0.0002: real time    0.0002
    --------------------------------------------
      LOOP:  cpu time    0.1213: real time    0.1219

 eigenvalue-minimisations  :  1696
 total energy-change (2. order) :-0.7451880E-04  (-0.1371242E-02)
 number of electron      48.0000021 magnetization 
 augmentation part        9.5241246 magnetization 

 Broyden mixing:
  rms(total) = 0.10185E-01    rms(broyden)= 0.10165E-01
  rms(prec ) = 0.13127E-01
  weight for this iteration     100.00

 eigenvalues of (default mixing * dielectric matrix)
  average eigenvalue GAMMA=   1.3216
  2.2790  1.9630  0.5502  1.2482  0.9447  0.9447

 Free energy of the ion-electron system (eV)
  ---------------------------------------------------
  alpha Z        PSCENC =       198.61100991
  Ewald energy   TEWEN  =     -3596.18025831
  -Hartree energ DENC   =     -1238.88700598
  -exchange      EXHF   =         0.00000000
  -V(xc)+E(xc)   XCENC  =       236.56803897
  PAW double counting   =      5513.36397796    -5474.91153974
  entropy T*S    EENTRO =        -0.00000000
  eigenvalues    EBANDS =      -597.80155813
  atomic energy  EATOM  =      4905.59488958
  Solvation  Ediel_sol  =         0.00000000
  ---------------------------------------------------
  free energy    TOTEN  =       -53.64244575 eV

  energy without entropy =      -53.64244575  energy(sigma->0) =      -53.64244575


--------------------------------------------------------------------------------------------------------




--------------------------------------- Iteration      1(  12)  ---------------------------------------


    POTLOK:  cpu time    0.0033: real time    0.0034
    SETDIJ:  cpu time    0.0009: real time    0.0009
     EDDAV:  cpu time    0.1366: real time    0.1367
       DOS:  cpu time    0.0001: real time    0.0001
    CHARGE:  cpu time    0.0065: real time    0.0065
    MIXING:  cpu time    0.0002: real time    0.0002
    --------------------------------------------
      LOOP:  cpu time    0.1476: real time    0.1478

 eigenvalue-minimisations  :  2080
 total energy-change (2. order) :-0.1162328E-04  (-0.4051726E-04)
 number of electron      48.0000021 magnetization 
 augmentation part        9.5253144 magnetization 

 Broyden mixing:
  rms(total) = 0.84093E-02    rms(broyden)= 0.84086E-02
  rms(prec ) = 0.13912E-01
  weight for this iteration     100.00

 eigenvalues of (default mixing * dielectric matrix)
  average eigenvalue GAMMA=   1.4653
  2.5753  2.4366  1.7291  0.5498  0.9683  0.9683  1.0297

 Free energy of the ion-electron system (eV)
  ---------------------------------------------------
  alpha Z        PSCENC =       198.61100991
  Ewald energy   TEWEN  =     -3596.18025831
  -Hartree energ DENC   =     -1238.64402163
  -exchange      EXHF   =         0.00000000
  -V(xc)+E(xc)   XCENC  =       236.55496321
  PAW double counting   =      5507.27118298    -5468.94434299
  entropy T*S    EENTRO =        -0.00000000
  eigenvalues    EBANDS =      -597.90588011
  atomic energy  EATOM  =      4905.59488958
  Solvation  Ediel_sol  =         0.00000000
  ---------------------------------------------------
  free energy    TOTEN  =       -53.64245737 eV

  energy without entropy =      -53.64245737  energy(sigma->0) =      -53.64245737


--------------------------------------------------------------------------------------------------------




--------------------------------------- Iteration      1(  13)  ---------------------------------------


    POTLOK:  cpu time    0.0033: real time    0.0034
    SETDIJ:  cpu time    0.0009: real time    0.0009
     EDDAV:  cpu time    0.1071: real time    0.1071
       DOS:  cpu time    0.0001: real time    0.0001
    CHARGE:  cpu time    0.0066: real time    0.0066
    MIXING:  cpu time    0.0002: real time    0.0002
    --------------------------------------------
      LOOP:  cpu time    0.1181: real time    0.1182

 eigenvalue-minimisations  :  1632
 total energy-change (2. order) : 0.3652333E-05  (-0.3012476E-04)
 number of electron      48.0000021 magnetization 
 augmentation part        9.5216835 magnetization 

 Broyden mixing:
  rms(total) = 0.14889E-02    rms(broyden)= 0.14885E-02
  rms(prec ) = 0.29213E-02
  weight for this iteration     100.00

 eigenvalues of (default mixing * dielectric matrix)
  average eigenvalue GAMMA=   1.4393
  2.6766  2.2634  1.8461  0.5499  1.2999  0.9527  0.9627  0.9627

 Free energy of the ion-electron system (eV)
  ---------------------------------------------------
  alpha Z        PSCENC =       198.61100991
  Ewald energy   TEWEN  =     -3596.18025831
  -Hartree energ DENC   =     -1239.10551317
  -exchange      EXHF   =         0.00000000
  -V(xc)+E(xc)   XCENC  =       236.57724568
  PAW double counting   =      5505.33320925    -5466.84700594
  entropy T*S    EENTRO =        -0.00000000
  eigenvalues    EBANDS =      -597.62603072
  atomic energy  EATOM  =      4905.59488958
  Solvation  Ediel_sol  =         0.00000000
  ---------------------------------------------------
  free energy    TOTEN  =       -53.64245372 eV

  energy without entropy =      -53.64245372  energy(sigma->0) =      -53.64245372


--------------------------------------------------------------------------------------------------------




--------------------------------------- Iteration      1(  14)  ---------------------------------------


    POTLOK:  cpu time    0.0033: real time    0.0034
    SETDIJ:  cpu time    0.0009: real time    0.0009
     EDDAV:  cpu time    0.1314: real time    0.1316
       DOS:  cpu time    0.0001: real time    0.0001
    CHARGE:  cpu time    0.0065: real time    0.0065
    MIXING:  cpu time    0.0002: real time    0.0002
    --------------------------------------------
      LOOP:  cpu time    0.1425: real time    0.1428

 eigenvalue-minimisations  :  2000
 total energy-change (2. order) : 0.7625413E-06  (-0.4724776E-05)
 number of electron      48.0000021 magnetization 
 augmentation part        9.5212618 magnetization 

 Broyden mixing:
  rms(total) = 0.52866E-03    rms(broyden)= 0.52734E-03
  rms(prec ) = 0.10573E-02
  weight for this iteration     100.00

 eigenvalues of (default mixing * dielectric matrix)
  average eigenvalue GAMMA=   1.5210
  2.6341  2.6341  2.0179  2.0179  0.5499  1.0177  0.9469  0.9351  0.9351

 Free energy of the ion-electron system (eV)
  ---------------------------------------------------
  alpha Z        PSCENC =       198.61100991
  Ewald energy   TEWEN  =     -3596.18025831
  -Hartree energ DENC   =     -1239.06748041
  -exchange      EXHF   =         0.00000000
  -V(xc)+E(xc)   XCENC  =       236.57399186
  PAW double counting   =      5505.42384691    -5466.93703573
  entropy T*S    EENTRO =        -0.00000000
  eigenvalues    EBANDS =      -597.66141676
  atomic energy  EATOM  =      4905.59488958
  Solvation  Ediel_sol  =         0.00000000
  ---------------------------------------------------
  free energy    TOTEN  =       -53.64245296 eV

  energy without entropy =      -53.64245296  energy(sigma->0) =      -53.64245296


--------------------------------------------------------------------------------------------------------




--------------------------------------- Iteration      1(  15)  ---------------------------------------


    POTLOK:  cpu time    0.0033: real time    0.0034
    SETDIJ:  cpu time    0.0009: real time    0.0009
     EDDAV:  cpu time    0.1087: real time    0.1087
       DOS:  cpu time    0.0001: real time    0.0001
    --------------------------------------------
      LOOP:  cpu time    0.1130: real time    0.1131

 eigenvalue-minimisations  :  1648
 total energy-change (2. order) :-0.9861651E-08  (-0.4022556E-06)
 number of electron      48.0000021 magnetization 
 augmentation part        9.5212618 magnetization 

 Free energy of the ion-electron system (eV)
  ---------------------------------------------------
  alpha Z        PSCENC =       198.61100991
  Ewald energy   TEWEN  =     -3596.18025831
  -Hartree energ DENC   =     -1239.08969475
  -exchange      EXHF   =         0.00000000
  -V(xc)+E(xc)   XCENC  =       236.57548939
  PAW double counting   =      5505.09879792    -5466.60315851
  entropy T*S    EENTRO =        -0.00000000
  eigenvalues    EBANDS =      -597.64952819
  atomic energy  EATOM  =      4905.59488958
  Solvation  Ediel_sol  =         0.00000000
  ---------------------------------------------------
  free energy    TOTEN  =       -53.64245297 eV

  energy without entropy =      -53.64245297  energy(sigma->0) =      -53.64245297


--------------------------------------------------------------------------------------------------------




 average (electrostatic) potential at core
  the test charge radii are     1.0397  0.7215
  (the norm of the test charge is              1.0000)
       1 -76.2084       2 -76.2084       3 -69.2972       4 -69.2972       5 -69.2972
       6 -69.2972
 
 
 
 E-fermi :   5.1449     XC(G=0): -11.4123     alpha+bet :-13.7962


 k-point     1 :       0.0000    0.0000    0.0000
  band No.  band energies     occupation 
      1     -52.0719      2.00000
      2     -52.0547      2.00000
      3     -28.3798      2.00000
      4     -28.3798      2.00000
      5     -28.2141      2.00000
      6     -28.2141      2.00000
      7     -28.1722      2.00000
      8     -28.1386      2.00000
      9     -13.3567      2.00000
     10     -12.1904      2.00000
     11     -11.4531      2.00000
     12     -11.4531      2.00000
     13      -0.9181      2.00000
     14      -0.5002      2.00000
     15      -0.0636      2.00000
     16       1.0221      2.00000
     17       1.0221      2.00000
     18       2.3003      2.00000
     19       2.3003      2.00000
     20       2.8662      2.00000
     21       4.1460      2.00000
     22       4.4046      2.00000
     23       4.4046      2.00000
     24       4.8545      2.00000
     25       6.7109      0.00000
     26       7.0140      0.00000
     27       7.2439      0.00000
     28       7.3368      0.00000
     29       7.3368      0.00000
     30       9.2264      0.00000
     31       9.4101      0.00000
     32      11.4612      0.00000

 k-point     2 :       0.2500    0.0000    0.0000
  band No.  band energies     occupation 
      1     -52.0694      2.00000
      2     -52.0572      2.00000
      3     -28.3607      2.00000
      4     -28.3591      2.00000
      5     -28.2369      2.00000
      6     -28.2353      2.00000
      7     -28.1673      2.00000
      8     -28.1435      2.00000
      9     -13.1430      2.00000
     10     -12.2237      2.00000
     11     -11.6354      2.00000
     12     -11.5331      2.00000
     13      -0.5524      2.00000
     14      -0.2693      2.00000
     15       0.3535      2.00000
     16       1.0452      2.00000
     17       1.0585      2.00000
     18       1.9624      2.00000
     19       2.1723      2.00000
     20       2.9104      2.00000
     21       3.4199      2.00000
     22       3.7860      2.00000
     23       4.0322      2.00000
     24       4.6216      2.00000
     25       7.0082      0.00000
     26       7.3374      0.00000
     27       7.5627      0.00000
     28       7.6330      0.00000
     29       7.6480      0.00000
     30       9.1028      0.00000
     31       9.7136      0.00000
     32      11.3075      0.00000

 k-point     3 :       0.5000    0.0000    0.0000
  band No.  band energies     occupation 
      1     -52.0633      2.00000
      2     -52.0633      2.00000
      3     -28.3275      2.00000
      4     -28.3275      2.00000
      5     -28.2707      2.00000
      6     -28.2707      2.00000
      7     -28.1554      2.00000
      8     -28.1554      2.00000
      9     -12.6198      2.00000
     10     -12.6198      2.00000
     11     -11.6874      2.00000
     12     -11.6874      2.00000
     13      -0.0671      2.00000
     14      -0.0671      2.00000
     15       1.0815      2.00000
     16       1.0815      2.00000
     17       1.6122      2.00000
     18       1.6122      2.00000
     19       1.8049      2.00000
     20       1.8049      2.00000
     21       3.2067      2.00000
     22       3.2067      2.00000
     23       4.1089      2.00000
     24       4.1089      2.00000
     25       7.3833      0.00000
     26       7.3833      0.00000
     27       7.8590      0.00000
     28       7.8590      0.00000
     29       8.4031      0.00000
     30       8.4031      0.00000
     31      10.9370      0.00000
     32      10.9370      0.00000

 k-point     4 :       0.2500    0.2500    0.0000
  band No.  band energies     occupation 
      1     -52.0676      2.00000
      2     -52.0590      2.00000
      3     -28.3860      2.00000
      4     -28.3279      2.00000
      5     -28.2702      2.00000
      6     -28.2103      2.00000
      7     -28.1638      2.00000
      8     -28.1469      2.00000
      9     -13.0036      2.00000
     10     -12.3189      2.00000
     11     -11.7159      2.00000
     12     -11.5200      2.00000
     13      -0.7070      2.00000
     14       0.0033      2.00000
     15       0.6659      2.00000
     16       0.9867      2.00000
     17       1.0819      2.00000
     18       1.7967      2.00000
     19       2.4241      2.00000
     20       3.0182      2.00000
     21       3.1154      2.00000
     22       3.7092      2.00000
     23       3.7349      2.00000
     24       4.4503      2.00000
     25       6.7870      0.00000
     26       7.3473      0.00000
     27       7.4253      0.00000
     28       7.8639      0.00000
     29       7.9884      0.00000
     30       8.9723      0.00000
     31       9.9647      0.00000
     32      11.1028      0.00000

 k-point     5 :       0.5000    0.2500    0.0000
  band No.  band energies     occupation 
      1     -52.0633      2.00000
      2     -52.0633      2.00000
      3     -28.3679      2.00000
      4     -28.3679      2.00000
      5     -28.2306      2.00000
      6     -28.2306      2.00000
      7     -28.1553      2.00000
      8     -28.1553      2.00000
      9     -12.6571      2.00000
     10     -12.6571      2.00000
     11     -11.6343      2.00000
     12     -11.6343      2.00000
     13      -0.4131      2.00000
     14      -0.4131      2.00000
     15       1.0134      2.00000
     16       1.0134      2.00000
     17       1.5794      2.00000
     18       1.5794      2.00000
     19       2.6322      2.00000
     20       2.6322      2.00000
     21       3.3724      2.00000
     22       3.3724      2.00000
     23       3.7633      2.00000
     24       3.7633      2.00000
     25       7.1154      0.00000
     26       7.1154      0.00000
     27       7.6049      0.00000
     28       7.6049      0.00000
     29       8.5496      0.00000
     30       8.5496      0.00000
     31      10.7759      0.00000
     32      10.7759      0.00000

 k-point     6 :       0.5000    0.5000    0.0000
  band No.  band energies     occupation 
      1     -52.0632      2.00000
      2     -52.0632      2.00000
      3     -28.3922      2.00000
      4     -28.3922      2.00000
      5     -28.2065      2.00000
      6     -28.2065      2.00000
      7     -28.1552      2.00000
      8     -28.1552      2.00000
      9     -12.6912      2.00000
     10     -12.6912      2.00000
     11     -11.5839      2.00000
     12     -11.5839      2.00000
     13      -0.6916      2.00000
     14      -0.6916      2.00000
     15       0.9516      2.00000
     16       0.9516      2.00000
     17       1.9978      2.00000
     18       1.9978      2.00000
     19       2.6693      2.00000
     20       2.6693      2.00000
     21       3.5416      2.00000
     22       3.5416      2.00000
     23       3.7923      2.00000
     24       3.7923      2.00000
     25       6.7516      0.00000
     26       6.7516      0.00000
     27       7.3588      0.00000
     28       7.3588      0.00000
     29       8.6703      0.00000
     30       8.6703      0.00000
     31      10.6538      0.00000
     32      10.6538      0.00000

 k-point     7 :       0.0000    0.0000    0.1667
  band No.  band energies     occupation 
      1     -52.0608      2.00000
      2     -52.0459      2.00000
      3     -28.3501      2.00000
      4     -28.3501      2.00000
      5     -28.2846      2.00000
      6     -28.2568      2.00000
      7     -28.2095      2.00000
      8     -28.2095      2.00000
      9     -13.0785      2.00000
     10     -12.0384      2.00000
     11     -11.5833      2.00000
     12     -11.5833      2.00000
     13      -0.5299      2.00000
     14      -0.2103      2.00000
     15       0.2532      2.00000
     16       0.7962      2.00000
     17       0.7962      2.00000
     18       2.1223      2.00000
     19       2.7721      2.00000
     20       2.7721      2.00000
     21       3.1564      2.00000
     22       3.8827      2.00000
     23       3.8827      2.00000
     24       4.6929      2.00000
     25       7.0970      0.00000
     26       7.2318      0.00000
     27       7.2765      0.00000
     28       7.6711      0.00000
     29       7.6711      0.00000
     30       9.1881      0.00000
     31       9.6059      0.00000
     32      11.1073      0.00000

 k-point     8 :       0.2500    0.0000    0.1667
  band No.  band energies     occupation 
      1     -52.0586      2.00000
      2     -52.0481      2.00000
      3     -28.3399      2.00000
      4     -28.3320      2.00000
      5     -28.2777      2.00000
      6     -28.2738      2.00000
      7     -28.2241      2.00000
      8     -28.2161      2.00000
      9     -12.8897      2.00000
     10     -12.0436      2.00000
     11     -11.7600      2.00000
     12     -11.6457      2.00000
     13      -0.2189      2.00000
     14       0.0415      2.00000
     15       0.4047      2.00000
     16       0.7544      2.00000
     17       1.1449      2.00000
     18       1.9619      2.00000
     19       2.2297      2.00000
     20       2.6839      2.00000
     21       2.7444      2.00000
     22       3.6534      2.00000
     23       3.8051      2.00000
     24       4.4848      2.00000
     25       7.2174      0.00000
     26       7.5324      0.00000
     27       7.5933      0.00000
     28       7.6848      0.00000
     29       7.9697      0.00000
     30       8.9303      0.00000
     31       9.9560      0.00000
     32      10.7038      0.00000

 k-point     9 :       0.5000    0.0000    0.1667
  band No.  band energies     occupation 
      1     -52.0533      2.00000
      2     -52.0533      2.00000
      3     -28.3108      2.00000
      4     -28.3108      2.00000
      5     -28.2907      2.00000
      6     -28.2907      2.00000
      7     -28.2319      2.00000
      8     -28.2319      2.00000
      9     -12.4198      2.00000
     10     -12.4198      2.00000
     11     -11.7772      2.00000
     12     -11.7772      2.00000
     13       0.2584      2.00000
     14       0.2584      2.00000
     15       0.7257      2.00000
     16       0.7257      2.00000
     17       1.5458      2.00000
     18       1.5458      2.00000
     19       2.1517      2.00000
     20       2.1517      2.00000
     21       2.6887      2.00000
     22       2.6887      2.00000
     23       4.1511      2.00000
     24       4.1511      2.00000
     25       7.5356      0.00000
     26       7.5356      0.00000
     27       7.9292      0.00000
     28       7.9292      0.00000
     29       8.4025      0.00000
     30       8.4025      0.00000
     31      10.3394      0.00000
     32      10.3394      0.00000

 k-point    10 :       0.2500    0.2500    0.1667
  band No.  band energies     occupation 
      1     -52.0570      2.00000
      2     -52.0496      2.00000
      3     -28.3557      2.00000
      4     -28.3058      2.00000
      5     -28.3004      2.00000
      6     -28.2658      2.00000
      7     -28.2319      2.00000
      8     -28.2062      2.00000
      9     -12.7614      2.00000
     10     -12.1287      2.00000
     11     -11.8199      2.00000
     12     -11.6442      2.00000
     13      -0.3896      2.00000
     14       0.3400      2.00000
     15       0.3754      2.00000
     16       0.7391      2.00000
     17       1.3682      2.00000
     18       1.8330      2.00000
     19       2.3498      2.00000
     20       2.6426      2.00000
     21       2.7960      2.00000
     22       3.6589      2.00000
     23       3.6650      2.00000
     24       4.1787      2.00000
     25       7.1926      0.00000
     26       7.2899      0.00000
     27       7.6502      0.00000
     28       8.0212      0.00000
     29       8.0616      0.00000
     30       8.7732      0.00000
     31      10.1147      0.00000
     32      10.5825      0.00000

 k-point    11 :       0.5000    0.2500    0.1667
  band No.  band energies     occupation 
      1     -52.0533      2.00000
      2     -52.0533      2.00000
      3     -28.3428      2.00000
      4     -28.3428      2.00000
      5     -28.2746      2.00000
      6     -28.2746      2.00000
      7     -28.2165      2.00000
      8     -28.2165      2.00000
      9     -12.4457      2.00000
     10     -12.4457      2.00000
     11     -11.7391      2.00000
     12     -11.7391      2.00000
     13      -0.1001      2.00000
     14      -0.1001      2.00000
     15       0.5203      2.00000
     16       0.5203      2.00000
     17       1.9885      2.00000
     18       1.9885      2.00000
     19       2.5793      2.00000
     20       2.5793      2.00000
     21       2.9362      2.00000
     22       2.9362      2.00000
     23       3.7448      2.00000
     24       3.7448      2.00000
     25       7.4368      0.00000
     26       7.4368      0.00000
     27       7.6906      0.00000
     28       7.6906      0.00000
     29       8.3928      0.00000
     30       8.3928      0.00000
     31      10.5902      0.00000
     32      10.5902      0.00000

 k-point    12 :       0.5000    0.5000    0.1667
  band No.  band energies     occupation 
      1     -52.0532      2.00000
      2     -52.0532      2.00000
      3     -28.3612      2.00000
      4     -28.3612      2.00000
      5     -28.2703      2.00000
      6     -28.2703      2.00000
      7     -28.2029      2.00000
      8     -28.2029      2.00000
      9     -12.4692      2.00000
     10     -12.4692      2.00000
     11     -11.7032      2.00000
     12     -11.7032      2.00000
     13      -0.3804      2.00000
     14      -0.3804      2.00000
     15       0.4166      2.00000
     16       0.4166      2.00000
     17       2.7152      2.00000
     18       2.7152      2.00000
     19       2.8144      2.00000
     20       2.8144      2.00000
     21       2.8570      2.00000
     22       2.8570      2.00000
     23       3.4517      2.00000
     24       3.4517      2.00000
     25       7.1980      0.00000
     26       7.1980      0.00000
     27       7.5429      0.00000
     28       7.5429      0.00000
     29       8.4002      0.00000
     30       8.4002      0.00000
     31      10.7862      0.00000
     32      10.7862      0.00000

 k-point    13 :       0.0000    0.0000    0.3333
  band No.  band energies     occupation 
      1     -52.0376      2.00000
      2     -52.0289      2.00000
      3     -28.5019      2.00000
      4     -28.4874      2.00000
      5     -28.2843      2.00000
      6     -28.2843      2.00000
      7     -28.2059      2.00000
      8     -28.2059      2.00000
      9     -12.4409      2.00000
     10     -11.8405      2.00000
     11     -11.8405      2.00000
     12     -11.8004      2.00000
     13       0.2715      2.00000
     14       0.3334      2.00000
     15       0.8301      2.00000
     16       0.8301      2.00000
     17       1.0787      2.00000
     18       1.1577      2.00000
     19       1.7635      2.00000
     20       2.8195      2.00000
     21       2.8195      2.00000
     22       3.2836      2.00000
     23       3.2836      2.00000
     24       3.8697      2.00000
     25       7.1901      0.00000
     26       7.5599      0.00000
     27       7.9791      0.00000
     28       8.2563      0.00000
     29       8.2563      0.00000
     30       8.5858      0.00000
     31      10.1457      0.00000
     32      10.8341      0.00000

 k-point    14 :       0.2500    0.0000    0.3333
  band No.  band energies     occupation 
      1     -52.0363      2.00000
      2     -52.0302      2.00000
      3     -28.5066      2.00000
      4     -28.4958      2.00000
      5     -28.2715      2.00000
      6     -28.2682      2.00000
      7     -28.2157      2.00000
      8     -28.2129      2.00000
      9     -12.3781      2.00000
     10     -12.0148      2.00000
     11     -11.8117      2.00000
     12     -11.7207      2.00000
     13       0.3115      2.00000
     14       0.4032      2.00000
     15       0.4953      2.00000
     16       0.7441      2.00000
     17       1.2654      2.00000
     18       1.3473      2.00000
     19       1.8513      2.00000
     20       2.6786      2.00000
     21       2.8247      2.00000
     22       3.1781      2.00000
     23       3.3520      2.00000
     24       4.0645      2.00000
     25       6.9529      0.00000
     26       7.7591      0.00000
     27       7.8260      0.00000
     28       8.0457      0.00000
     29       8.4438      0.00000
     30       8.6564      0.00000
     31      10.0646      0.00000
     32      10.0847      0.00000

 k-point    15 :       0.5000    0.0000    0.3333
  band No.  band energies     occupation 
      1     -52.0332      2.00000
      2     -52.0332      2.00000
      3     -28.5074      2.00000
      4     -28.5074      2.00000
      5     -28.2468      2.00000
      6     -28.2468      2.00000
      7     -28.2318      2.00000
      8     -28.2318      2.00000
      9     -12.2196      2.00000
     10     -12.2196      2.00000
     11     -11.7443      2.00000
     12     -11.7443      2.00000
     13       0.3068      2.00000
     14       0.3068      2.00000
     15       0.6263      2.00000
     16       0.6263      2.00000
     17       1.3644      2.00000
     18       1.3644      2.00000
     19       2.1709      2.00000
     20       2.1709      2.00000
     21       3.0246      2.00000
     22       3.0246      2.00000
     23       3.8392      2.00000
     24       3.8392      2.00000
     25       7.1200      0.00000
     26       7.1200      0.00000
     27       8.0831      0.00000
     28       8.0831      0.00000
     29       8.6135      0.00000
     30       8.6135      0.00000
     31       9.8019      0.00000
     32       9.8019      0.00000

 k-point    16 :       0.2500    0.2500    0.3333
  band No.  band energies     occupation 
      1     -52.0353      2.00000
      2     -52.0310      2.00000
      3     -28.5070      2.00000
      4     -28.4948      2.00000
      5     -28.2880      2.00000
      6     -28.2465      2.00000
      7     -28.2319      2.00000
      8     -28.2042      2.00000
      9     -12.3126      2.00000
     10     -11.9967      2.00000
     11     -11.8916      2.00000
     12     -11.7217      2.00000
     13       0.2566      2.00000
     14       0.3058      2.00000
     15       0.3112      2.00000
     16       0.7836      2.00000
     17       1.0210      2.00000
     18       1.7587      2.00000
     19       2.1261      2.00000
     20       2.4559      2.00000
     21       2.7794      2.00000
     22       3.2823      2.00000
     23       3.5212      2.00000
     24       4.1466      2.00000
     25       6.9490      0.00000
     26       7.7299      0.00000
     27       7.9296      0.00000
     28       8.0041      0.00000
     29       8.1952      0.00000
     30       8.6842      0.00000
     31       9.7464      0.00000
     32      10.7124      0.00000

 k-point    17 :       0.5000    0.2500    0.3333
  band No.  band energies     occupation 
      1     -52.0332      2.00000
      2     -52.0332      2.00000
      3     -28.5009      2.00000
      4     -28.5009      2.00000
      5     -28.2744      2.00000
      6     -28.2744      2.00000
      7     -28.2117      2.00000
      8     -28.2117      2.00000
      9     -12.1500      2.00000
     10     -12.1500      2.00000
     11     -11.8103      2.00000
     12     -11.8103      2.00000
     13       0.1526      2.00000
     14       0.1526      2.00000
     15       0.4694      2.00000
     16       0.4694      2.00000
     17       1.4048      2.00000
     18       1.4048      2.00000
     19       2.4988      2.00000
     20       2.4988      2.00000
     21       3.0474      2.00000
     22       3.0474      2.00000
     23       3.8927      2.00000
     24       3.8927      2.00000
     25       7.3161      0.00000
     26       7.3161      0.00000
     27       7.9306      0.00000
     28       7.9306      0.00000
     29       8.3845      0.00000
     30       8.3845      0.00000
     31      10.1565      0.00000
     32      10.1565      0.00000

 k-point    18 :       0.5000    0.5000    0.3333
  band No.  band energies     occupation 
      1     -52.0332      2.00000
      2     -52.0332      2.00000
      3     -28.4939      2.00000
      4     -28.4939      2.00000
      5     -28.2917      2.00000
      6     -28.2917      2.00000
      7     -28.2026      2.00000
      8     -28.2026      2.00000
      9     -12.0153      2.00000
     10     -12.0153      2.00000
     11     -11.9416      2.00000
     12     -11.9416      2.00000
     13       0.1155      2.00000
     14       0.1155      2.00000
     15       0.2031      2.00000
     16       0.2031      2.00000
     17       1.5585      2.00000
     18       1.5585      2.00000
     19       2.5577      2.00000
     20       2.5577      2.00000
     21       3.2981      2.00000
     22       3.2981      2.00000
     23       3.8646      2.00000
     24       3.8646      2.00000
     25       7.7909      0.00000
     26       7.7909      0.00000
     27       7.7950      0.00000
     28       7.7950      0.00000
     29       7.8925      0.00000
     30       7.8925      0.00000
     31      10.8133      0.00000
     32      10.8136      0.00000

 k-point    19 :       0.0000    0.0000    0.5000
  band No.  band energies     occupation 
      1     -52.0232      2.00000
      2     -52.0232      2.00000
      3     -28.6035      2.00000
      4     -28.6035      2.00000
      5     -28.2351      2.00000
      6     -28.2351      2.00000
      7     -28.2200      2.00000
      8     -28.2200      2.00000
      9     -11.9680      2.00000
     10     -11.9680      2.00000
     11     -11.8971      2.00000
     12     -11.8971      2.00000
     13       0.3651      2.00000
     14       0.3651      2.00000
     15       1.1410      2.00000
     16       1.1410      2.00000
     17       1.2314      2.00000
     18       1.2314      2.00000
     19       2.1006      2.00000
     20       2.1006      2.00000
     21       2.4864      2.00000
     22       2.4864      2.00000
     23       3.4279      2.00000
     24       3.4279      2.00000
     25       7.8083      0.00000
     26       7.8083      0.00000
     27       8.0028      0.00000
     28       8.0028      0.00000
     29       8.5151      0.00000
     30       8.5151      0.00000
     31      10.3476      0.00000
     32      10.3476      0.00000

 k-point    20 :       0.2500    0.0000    0.5000
  band No.  band energies     occupation 
      1     -52.0232      2.00000
      2     -52.0232      2.00000
      3     -28.6092      2.00000
      4     -28.6092      2.00000
      5     -28.2301      2.00000
      6     -28.2301      2.00000
      7     -28.2196      2.00000
      8     -28.2196      2.00000
      9     -12.1807      2.00000
     10     -12.1807      2.00000
     11     -11.6714      2.00000
     12     -11.6714      2.00000
     13       0.0947      2.00000
     14       0.0947      2.00000
     15       0.7777      2.00000
     16       0.7777      2.00000
     17       1.6059      2.00000
     18       1.6059      2.00000
     19       2.2192      2.00000
     20       2.2192      2.00000
     21       3.0690      2.00000
     22       3.0690      2.00000
     23       3.2355      2.00000
     24       3.2355      2.00000
     25       7.2952      0.00000
     26       7.2952      0.00000
     27       8.0159      0.00000
     28       8.0159      0.00000
     29       8.6657      0.00000
     30       8.6657      0.00000
     31       9.9640      0.00000
     32       9.9640      0.00000

 k-point    21 :       0.5000    0.0000    0.5000
  band No.  band energies     occupation 
      1     -52.0231      2.00000
      2     -52.0231      2.00000
      3     -28.6146      2.00000
      4     -28.6146      2.00000
      5     -28.2258      2.00000
      6     -28.2258      2.00000
      7     -28.2184      2.00000
      8     -28.2184      2.00000
      9     -12.2782      2.00000
     10     -12.2782      2.00000
     11     -11.5600      2.00000
     12     -11.5600      2.00000
     13      -0.2007      2.00000
     14      -0.2007      2.00000
     15       0.8740      2.00000
     16       0.8740      2.00000
     17       1.5843      2.00000
     18       1.5843      2.00000
     19       2.4728      2.00000
     20       2.4728      2.00000
     21       2.8103      2.00000
     22       2.8103      2.00000
     23       3.8178      2.00000
     24       3.8178      2.00000
     25       6.7516      0.00000
     26       6.7516      0.00000
     27       8.0271      0.00000
     28       8.0271      0.00000
     29       8.7537      0.00000
     30       8.7537      0.00000
     31       9.7770      0.00000
     32       9.7770      0.00000

 k-point    22 :       0.2500    0.2500    0.5000
  band No.  band energies     occupation 
      1     -52.0231      2.00000
      2     -52.0231      2.00000
      3     -28.6134      2.00000
      4     -28.6044      2.00000
      5     -28.2362      2.00000
      6     -28.2248      2.00000
      7     -28.2208      2.00000
      8     -28.2194      2.00000
      9     -12.2813      2.00000
     10     -12.0149      2.00000
     11     -11.8389      2.00000
     12     -11.5566      2.00000
     13      -0.1833      2.00000
     14       0.4616      2.00000
     15       0.5761      2.00000
     16       0.6927      2.00000
     17       0.8775      2.00000
     18       2.1059      2.00000
     19       2.2325      2.00000
     20       2.2372      2.00000
     21       3.0075      2.00000
     22       3.2949      2.00000
     23       3.4704      2.00000
     24       3.6624      2.00000
     25       6.9461      0.00000
     26       7.6148      0.00000
     27       8.0142      0.00000
     28       8.0236      0.00000
     29       8.1304      0.00000
     30       8.8478      0.00000
     31       9.6899      0.00000
     32      10.6986      0.00000

 k-point    23 :       0.5000    0.2500    0.5000
  band No.  band energies     occupation 
      1     -52.0231      2.00000
      2     -52.0231      2.00000
      3     -28.6088      2.00000
      4     -28.6088      2.00000
      5     -28.2311      2.00000
      6     -28.2311      2.00000
      7     -28.2203      2.00000
      8     -28.2203      2.00000
      9     -12.1924      2.00000
     10     -12.1924      2.00000
     11     -11.6476      2.00000
     12     -11.6476      2.00000
     13      -0.1151      2.00000
     14      -0.1151      2.00000
     15       0.6887      2.00000
     16       0.6887      2.00000
     17       1.3949      2.00000
     18       1.3949      2.00000
     19       2.2112      2.00000
     20       2.2112      2.00000
     21       3.3277      2.00000
     22       3.3277      2.00000
     23       3.9743      2.00000
     24       3.9743      2.00000
     25       7.0126      0.00000
     26       7.0126      0.00000
     27       8.0369      0.00000
     28       8.0369      0.00000
     29       8.4930      0.00000
     30       8.4930      0.00000
     31      10.0549      0.00000
     32      10.0549      0.00000

 k-point    24 :       0.5000    0.5000    0.5000
  band No.  band energies     occupation 
      1     -52.0231      2.00000
      2     -52.0231      2.00000
      3     -28.6027      2.00000
      4     -28.6027      2.00000
      5     -28.2374      2.00000
      6     -28.2374      2.00000
      7     -28.2216      2.00000
      8     -28.2216      2.00000
      9     -12.0606      2.00000
     10     -12.0606      2.00000
     11     -11.7814      2.00000
     12     -11.7814      2.00000
     13       0.1289      2.00000
     14       0.1289      2.00000
     15       0.2846      2.00000
     16       0.2846      2.00000
     17       1.3200      2.00000
     18       1.3200      2.00000
     19       2.1297      2.00000
     20       2.1297      2.00000
     21       3.5695      2.00000
     22       3.5695      2.00000
     23       4.1796      2.00000
     24       4.1796      2.00000
     25       7.4339      0.00000
     26       7.4339      0.00000
     27       8.0475      0.00000
     28       8.0475      0.00000
     29       8.0600      0.00000
     30       8.0600      0.00000
     31      10.7558      0.00000
     32      10.7558      0.00000


--------------------------------------------------------------------------------------------------------


 soft charge-density along one line, spin component           1
         0         1         2         3         4         5         6         7         8         9
 total charge-density along one line
 
 pseudopotential strength for first ion, spin component:           1
 -3.385 -21.574   0.000  -0.000   0.000  -0.000   0.000  -0.000
-21.574   9.326   0.000  -0.000   0.000   0.000  -0.000   0.000
  0.000   0.000 -24.788   0.000   0.005   8.725  -0.000  -0.003
 -0.000  -0.000   0.000 -24.799   0.000  -0.000   8.731  -0.000
  0.000   0.000   0.005   0.000 -24.788  -0.003  -0.000   8.725
 -0.000   0.000   8.725  -0.000  -0.003   5.788   0.000   0.001
  0.000  -0.000  -0.000   8.731  -0.000   0.000   5.787   0.000
 -0.000   0.000  -0.003  -0.000   8.725   0.001   0.000   5.788
  0.003   0.001   0.000  -0.000   0.000  -0.000   0.000  -0.000
  0.000   0.000  -0.000   0.000  -0.000   0.000  -0.000   0.000
 -0.006  -0.001  -0.000  -0.000  -0.000   0.000   0.000   0.000
  0.000   0.000  -0.000   0.000  -0.000   0.000  -0.000   0.000
 -0.000  -0.000  -0.000  -0.000   0.000   0.000   0.000  -0.000
  0.004   0.002   0.000  -0.000   0.000  -0.000   0.000  -0.000
  0.000   0.000  -0.000   0.000  -0.000   0.000  -0.000   0.000
 -0.007  -0.001  -0.000  -0.000  -0.000   0.000   0.000   0.000
  0.000   0.000  -0.000   0.000  -0.000   0.000  -0.000   0.000
 -0.000  -0.000  -0.000  -0.000   0.000   0.000   0.000  -0.000
 total augmentation occupancy for first ion, spin component:           1
  1.990  -0.109   0.000   0.000   0.000   0.000   0.000   0.000  -0.001   0.000   0.014   0.000   0.000   0.000   0.000  -0.012
 -0.109   1.496   0.000   0.000   0.000   0.000   0.000   0.000   0.051   0.000   0.402   0.000   0.000  -0.049   0.000  -0.289
  0.000   0.000   1.968   0.000  -0.000  -0.071   0.000  -0.001   0.000   0.000   0.000   0.000   0.000   0.000   0.000   0.000
  0.000   0.000   0.000   1.969   0.000   0.000  -0.068   0.000   0.000   0.000   0.000   0.000   0.000   0.000   0.000   0.000
  0.000   0.000  -0.000   0.000   1.968  -0.001   0.000  -0.071   0.000   0.000   0.000   0.000   0.000   0.000   0.000   0.000
  0.000   0.000  -0.071   0.000  -0.001   0.191   0.000  -0.003   0.000   0.000   0.000   0.000   0.000   0.000   0.000   0.000
  0.000   0.000   0.000  -0.068   0.000   0.000   0.221   0.000   0.000   0.000   0.000   0.000   0.000   0.000   0.000   0.000
  0.000   0.000  -0.001   0.000  -0.071  -0.003   0.000   0.191   0.000   0.000   0.000   0.000   0.000   0.000   0.000   0.000
 -0.001   0.051   0.000   0.000   0.000   0.000   0.000   0.000   6.077   0.000  -2.835   0.000   0.000  -3.815   0.000   1.891
  0.000   0.000   0.000   0.000   0.000   0.000   0.000   0.000   0.000   5.542   0.000  -3.205   0.000   0.000  -3.441   0.000
  0.014   0.402   0.000   0.000   0.000   0.000   0.000   0.000  -2.835   0.000   4.646   0.000   0.000   1.892   0.000  -2.944
  0.000   0.000   0.000   0.000   0.000   0.000   0.000   0.000   0.000  -3.205   0.000   5.542   0.000   0.000   2.135   0.000
  0.000   0.000   0.000   0.000   0.000   0.000   0.000   0.000   0.000   0.000   0.000   0.000   1.976   0.000   0.000   0.000
  0.000  -0.049   0.000   0.000   0.000   0.000   0.000   0.000  -3.815   0.000   1.892   0.000   0.000   2.445   0.000  -1.279
  0.000   0.000   0.000   0.000   0.000   0.000   0.000   0.000   0.000  -3.441   0.000   2.135   0.000   0.000   2.183   0.000
 -0.012  -0.289   0.000   0.000   0.000   0.000   0.000   0.000   1.891   0.000  -2.944   0.000   0.000  -1.279   0.000   1.891
  0.000   0.000   0.000   0.000   0.000   0.000   0.000   0.000   0.000   2.135   0.000  -3.441   0.000   0.000  -1.442   0.000
  0.000  -0.000   0.000   0.000   0.000   0.000   0.000   0.000   0.000   0.000   0.000   0.000  -1.036   0.000   0.000  -0.000


------------------------ aborting loop because EDIFF is reached ----------------------------------------


    CHARGE:  cpu time    0.0067: real time    0.0067
    FORLOC:  cpu time    0.0003: real time    0.0003
    FORNL :  cpu time    0.0259: real time    0.0259
    STRESS:  cpu time    0.1115: real time    0.1118
    FORCOR:  cpu time    0.0035: real time    0.0035
    FORHAR:  cpu time    0.0008: real time    0.0008
    MIXING:  cpu time    0.0002: real time    0.0002
    OFIELD:  cpu time    0.0000: real time    0.0000

  FORCE on cell =-STRESS in cart. coord.  units (eV):
  Direction    XX          YY          ZZ          XY          YZ          ZX
  --------------------------------------------------------------------------------------
  Alpha Z   198.61101   198.61101   198.61101
  Ewald   -1388.77867 -1388.77867  -818.62562    -0.00000     0.00000     0.00000
  Hartree   304.45713   304.45713   630.17148    -0.00000    -0.00000    -0.00000
  E(xc)    -247.49207  -247.49207  -246.76407    -0.00000    -0.00000    -0.00000
  Local     261.15569   261.15569  -624.94509    -0.00000     0.00000    -0.00000
  n-local  -157.38502  -156.06536  -161.12907    -0.49802     0.13672     0.07953
  augment   144.74989   144.74989   145.32535     0.00000     0.00000     0.00000
  Kinetic   887.77829   884.80292   879.40180    -0.25928    -0.63954    -1.12172
  Fock        0.00000     0.00000     0.00000     0.00000     0.00000     0.00000
  -------------------------------------------------------------------------------------
  Total       2.26840     2.26840     2.04578     0.00000     0.00000     0.00000
  in kB      58.21075    58.21075    52.49809     0.00000     0.00000     0.00000
  external pressure =       56.31 kB  Pullay stress =        0.00 kB


 VOLUME and BASIS-vectors are now :
 -----------------------------------------------------------------------------
  energy-cutoff  :      500.00
  volume of cell :       62.43
      direct lattice vectors                 reciprocal lattice vectors
     4.593700000  0.000000000  0.000000000     0.217689444  0.000000000  0.000000000
     0.000000000  4.593700000  0.000000000     0.000000000  0.217689444  0.000000000
     0.000000000  0.000000000  2.958700000     0.000000000  0.000000000  0.337986278

  length of vectors
     4.593700000  4.593700000  2.958700000     0.217689444  0.217689444  0.337986278


 FORCES acting on ions
    electron-ion (+dipol)            ewald-force                    non-local-force                 convergence-correction
 -----------------------------------------------------------------------------------------------
   0.383E-13 0.447E-13 0.543E-14   0.000E+00 0.000E+00 -.252E-13   0.000E+00 0.000E+00 0.000E+00   -.893E-13 0.143E-12 0.454E-13
   0.132E-11 0.420E-11 0.285E-11   0.000E+00 0.000E+00 -.256E-13   0.000E+00 0.000E+00 0.000E+00   -.390E-13 0.147E-12 0.101E-13
   0.445E+02 0.445E+02 -.426E-06   -.477E+02 -.477E+02 0.115E-13   0.304E+01 0.304E+01 0.000E+00   -.226E-03 -.226E-03 0.220E-14
   -.445E+02 -.445E+02 0.426E-06   0.477E+02 0.477E+02 0.112E-13   -.304E+01 -.304E+01 0.000E+00   0.226E-03 0.226E-03 0.767E-14
   0.445E+02 -.445E+02 -.414E-11   -.477E+02 0.477E+02 0.148E-13   0.304E+01 -.304E+01 0.000E+00   -.226E-03 0.226E-03 -.102E-13
   -.445E+02 0.445E+02 0.102E-11   0.477E+02 -.477E+02 0.147E-13   -.304E+01 0.304E+01 0.000E+00   0.226E-03 -.226E-03 0.720E-14
 -----------------------------------------------------------------------------------------------
   0.362E-11 0.575E-11 0.215E-11   -.711E-14 -.711E-14 0.143E-14   0.000E+00 -.444E-15 0.000E+00   -.146E-12 0.362E-12 0.624E-13
 
 
 POSITION                                       TOTAL-FORCE (eV/Angst)
 -----------------------------------------------------------------------------------
      0.00000      0.00000      0.00000         0.000000      0.000000     -0.000000
      2.29685      2.29685      1.47935         0.000000      0.000000     -0.000000
      1.40007      1.40007      0.00000        -0.067498     -0.067498     -0.000000
      3.19363      3.19363      0.00000         0.067498      0.067498      0.000000
      3.69692      0.89678      1.47935        -0.067498      0.067498      0.000000
      0.89678      3.69692      1.47935         0.067498     -0.067498     -0.000000
 -----------------------------------------------------------------------------------
    total drift:                                0.000000      0.000000      0.000000


--------------------------------------------------------------------------------------------------------



  FREE ENERGIE OF THE ION-ELECTRON SYSTEM (eV)
  ---------------------------------------------------
  free  energy   TOTEN  =       -53.64245297 eV

  energy  without entropy=      -53.64245297  energy(sigma->0) =      -53.64245297
 


--------------------------------------------------------------------------------------------------------


    POTLOK:  cpu time    0.0044: real time    0.0044


--------------------------------------------------------------------------------------------------------


     LOOP+:  cpu time    2.1357: real time    2.1562
    4ORBIT:  cpu time    0.0000: real time    0.0000

 total amount of memory used by VASP MPI-rank0    45708. kBytes
=======================================================================

   base      :      30000. kBytes
   nonl-proj :      11324. kBytes
   fftplans  :        728. kBytes
   grid      :       2261. kBytes
   one-center:         93. kBytes
   wavefun   :       1302. kBytes
 
  
  
 General timing and accounting informations for this job:
 ========================================================
  
                  Total CPU time used (sec):        2.428
                            User time (sec):        2.240
                          System time (sec):        0.188
                         Elapsed time (sec):        2.854
  
                   Maximum memory used (kb):      144804.
                   Average memory used (kb):           0.
  
                          Minor page faults:        12707
                          Major page faults:         2481
                 Voluntary context switches:          867
