rutile TiO2 (6-atom primitive cell; a=b=4.5937, c=2.9587 Ang)
1.0
     4.5937000000     0.0000000000     0.0000000000
     0.0000000000     4.5937000000     0.0000000000
     0.0000000000     0.0000000000     2.9587000000
   Ti    O
    2     4
Cartesian
     0.0000000000     0.0000000000     0.0000000000
     2.2968500000     2.2968500000     1.4793500000
     1.4000678900     1.4000678900     0.0000000000
     3.1936321100     3.1936321100     0.0000000000
     3.6969178900     0.8967821100     1.4793500000
     0.8967821100     3.6969178900     1.4793500000
