<?xml version="1.0" encoding="ISO-8859-1"?>
<modeling>
 <generator>
  <i name="program" type="string">vasp </i>
  <i name="version" type="string">5.4.4.18Apr17-6-g9f103f2a35  </i>
  <i name="subversion" type="string">(build Mar 10 2026 18:13:51) complex            parallel </i>
  <i name="platform" type="string">LinuxIFC </i>
  <i name="date" type="string">2026 07 01 </i>
  <i name="time" type="string">04:29:10 </i>
 </generator>
 <incar>
  <i type="string" name="SYSTEM"> rutile TiO2 (PBE band gap)</i>
  <i type="string" name="PREC">accurate</i>
  <i type="string" name="ALGO"> Normal</i>
  <i type="int" name="NELM">   200</i>
  <i type="int" name="NELMIN">     6</i>
  <i name="EDIFF">      0.00000100</i>
  <i type="int" name="NSW">     0</i>
  <i name="ENCUT">    500.00000000</i>
  <i type="int" name="ISMEAR">     0</i>
  <i name="SIGMA">      0.05000000</i>
  <i type="logical" name="LWAVE"> F  </i>
  <i type="logical" name="LCHARG"> F  </i>
  <v type="int" name="KPOINT_BSE">    -1     0     0     0</v>
  <i type="int" name="NELM">   200</i>
 </incar>
 <structure name="primitive_cell" >
  <crystal>
   <varray name="basis" >
    <v>       4.59370000       0.00000000       0.00000000 </v>
    <v>       0.00000000       4.59370000       0.00000000 </v>
    <v>       0.00000000       0.00000000       2.95870000 </v>
   </varray>
   <i name="volume">     62.43472318 </i>
   <varray name="rec_basis" >
    <v>       0.21768944       0.00000000       0.00000000 </v>
    <v>       0.00000000       0.21768944       0.00000000 </v>
    <v>       0.00000000       0.00000000       0.33798628 </v>
   </varray>
  </crystal>
  <varray name="positions" >
   <v>       0.00000000       0.00000000       0.00000000 </v>
   <v>      -0.19522000       0.19522000      -0.50000000 </v>
   <v>       0.19522000      -0.19522000      -0.50000000 </v>
   <v>       0.30478000       0.30478000       0.00000000 </v>
   <v>      -0.30478000      -0.30478000       0.00000000 </v>
   <v>      -0.50000000      -0.50000000      -0.50000000 </v>
  </varray>
 </structure>
 <varray name="primitive_index" >
  <v type="int" >        1 </v>
  <v type="int" >        5 </v>
  <v type="int" >        6 </v>
  <v type="int" >        3 </v>
  <v type="int" >        4 </v>
  <v type="int" >        2 </v>
 </varray>
 <kpoints>
  <generation param="Gamma">
   <v type="int" name="divisions">       4        4        6 </v>
   <v name="usershift">      0.00000000       0.00000000       0.00000000 </v>
   <v name="genvec1">      0.25000000       0.00000000       0.00000000 </v>
   <v name="genvec2">      0.00000000       0.25000000       0.00000000 </v>
   <v name="genvec3">      0.00000000       0.00000000       0.16666667 </v>
   <v name="shift">      0.00000000       0.00000000       0.00000000 </v>
  </generation>
  <varray name="kpointlist" >
   <v>       0.00000000       0.00000000       0.00000000 </v>
   <v>       0.25000000       0.00000000       0.00000000 </v>
   <v>       0.50000000       0.00000000       0.00000000 </v>
   <v>       0.25000000       0.25000000       0.00000000 </v>
   <v>       0.50000000       0.25000000       0.00000000 </v>
   <v>       0.50000000       0.50000000       0.00000000 </v>
   <v>       0.00000000       0.00000000       0.16666667 </v>
   <v>       0.25000000       0.00000000       0.16666667 </v>
   <v>       0.50000000       0.00000000       0.16666667 </v>
   <v>       0.25000000       0.25000000       0.16666667 </v>
   <v>       0.50000000       0.25000000       0.16666667 </v>
   <v>       0.50000000       0.50000000       0.16666667 </v>
   <v>       0.00000000       0.00000000       0.33333333 </v>
   <v>       0.25000000       0.00000000       0.33333333 </v>
   <v>       0.50000000       0.00000000       0.33333333 </v>
   <v>       0.25000000       0.25000000       0.33333333 </v>
   <v>       0.50000000       0.25000000       0.33333333 </v>
   <v>       0.50000000       0.50000000       0.33333333 </v>
   <v>       0.00000000       0.00000000       0.50000000 </v>
   <v>       0.25000000       0.00000000       0.50000000 </v>
   <v>       0.50000000       0.00000000       0.50000000 </v>
   <v>       0.25000000       0.25000000       0.50000000 </v>
   <v>       0.50000000       0.25000000       0.50000000 </v>
   <v>       0.50000000       0.50000000       0.50000000 </v>
  </varray>
  <varray name="weights" >
   <v>       0.01041667 </v>
   <v>       0.04166667 </v>
   <v>       0.02083333 </v>
   <v>       0.04166667 </v>
   <v>       0.04166667 </v>
   <v>       0.01041667 </v>
   <v>       0.02083333 </v>
   <v>       0.08333333 </v>
   <v>       0.04166667 </v>
   <v>       0.08333333 </v>
   <v>       0.08333333 </v>
   <v>       0.02083333 </v>
   <v>       0.02083333 </v>
   <v>       0.08333333 </v>
   <v>       0.04166667 </v>
   <v>       0.08333333 </v>
   <v>       0.08333333 </v>
   <v>       0.02083333 </v>
   <v>       0.01041667 </v>
   <v>       0.04166667 </v>
   <v>       0.02083333 </v>
   <v>       0.04166667 </v>
   <v>       0.04166667 </v>
   <v>       0.01041667 </v>
  </varray>
 </kpoints>
 <parameters>
  <separator name="general" >
   <i type="string" name="SYSTEM">rutile TiO2 (PBE band gap)</i>
   <i type="logical" name="LCOMPAT"> F  </i>
  </separator>
  <separator name="electronic" >
   <i type="string" name="PREC">accura</i>
   <i name="ENMAX">    500.00000000</i>
   <i name="ENAUG">    605.39200000</i>
   <i name="EDIFF">      0.00000100</i>
   <i type="int" name="IALGO">    38</i>
   <i type="int" name="IWAVPR">    10</i>
   <i type="int" name="NBANDS">    32</i>
   <i name="NELECT">     48.00000000</i>
   <i type="int" name="TURBO">     0</i>
   <i type="int" name="IRESTART">     0</i>
   <i type="int" name="NREBOOT">     0</i>
   <i type="int" name="NMIN">     0</i>
   <i name="EREF">      0.00000000</i>
   <separator name="electronic smearing" >
    <i type="int" name="ISMEAR">     0</i>
    <i name="SIGMA">      0.05000000</i>
    <i name="KSPACING">      0.50000000</i>
    <i type="logical" name="KGAMMA"> T  </i>
   </separator>
   <separator name="electronic projectors" >
    <i type="logical" name="LREAL"> F  </i>
    <v name="ROPT">      0.00000000      0.00000000</v>
    <i type="int" name="LMAXPAW">  -100</i>
    <i type="int" name="LMAXMIX">     2</i>
    <i type="logical" name="NLSPLINE"> F  </i>
   </separator>
   <separator name="electronic startup" >
    <i type="int" name="ISTART">     0</i>
    <i type="int" name="ICHARG">     2</i>
    <i type="int" name="INIWAV">     1</i>
   </separator>
   <separator name="electronic spin" >
    <i type="int" name="ISPIN">     1</i>
    <i type="logical" name="LNONCOLLINEAR"> F  </i>
    <v name="MAGMOM">      1.00000000      1.00000000      1.00000000      1.00000000      1.00000000      1.00000000</v>
    <i name="NUPDOWN">     -1.00000000</i>
    <i type="logical" name="LSORBIT"> F  </i>
    <v name="SAXIS">      0.00000000      0.00000000      1.00000000</v>
    <i type="logical" name="LSPIRAL"> F  </i>
    <v name="QSPIRAL">      0.00000000      0.00000000      0.00000000</v>
    <i type="logical" name="LZEROZ"> F  </i>
   </separator>
   <separator name="electronic exchange-correlation" >
    <i type="logical" name="LASPH"> F  </i>
    <i type="logical" name="LMETAGGA"> F  </i>
   </separator>
   <separator name="electronic convergence" >
    <i type="int" name="NELM">   200</i>
    <i type="int" name="NELMDL">    -5</i>
    <i type="int" name="NELMIN">     6</i>
    <i name="ENINI">    500.00000000</i>
    <separator name="electronic convergence detail" >
     <i type="logical" name="LDIAG"> T  </i>
     <i type="logical" name="LSUBROT"> F  </i>
     <i name="WEIMIN">      0.00000000</i>
     <i name="EBREAK">      0.00000001</i>
     <i name="DEPER">      0.30000000</i>
     <i type="int" name="NRMM">     4</i>
     <i name="TIME">      0.40000000</i>
    </separator>
   </separator>
   <separator name="electronic mixer" >
    <i name="AMIX">      0.40000000</i>
    <i name="BMIX">      1.00000000</i>
    <i name="AMIN">      0.10000000</i>
    <i name="AMIX_MAG">      1.60000000</i>
    <i name="BMIX_MAG">      1.00000000</i>
    <separator name="electronic mixer details" >
     <i type="int" name="IMIX">     4</i>
     <i type="logical" name="MIXFIRST"> F  </i>
     <i type="int" name="MAXMIX">   -45</i>
     <i name="WC">    100.00000000</i>
     <i type="int" name="INIMIX">     1</i>
     <i type="int" name="MIXPRE">     1</i>
     <i type="int" name="MREMOVE">     5</i>
    </separator>
   </separator>
   <separator name="electronic dipolcorrection" >
    <i type="logical" name="LDIPOL"> F  </i>
    <i type="logical" name="LMONO"> F  </i>
    <i type="int" name="IDIPOL">     0</i>
    <i name="EPSILON">      1.00000000</i>
    <v name="DIPOL">   -100.00000000   -100.00000000   -100.00000000</v>
    <i name="EFIELD">      0.00000000</i>
   </separator>
  </separator>
  <separator name="grids" >
   <i type="int" name="NGX">    36</i>
   <i type="int" name="NGY">    36</i>
   <i type="int" name="NGZ">    24</i>
   <i type="int" name="NGXF">    72</i>
   <i type="int" name="NGYF">    72</i>
   <i type="int" name="NGZF">    48</i>
   <i type="logical" name="ADDGRID"> F  </i>
  </separator>
  <separator name="ionic" >
   <i type="int" name="NSW">     0</i>
   <i type="int" name="IBRION">    -1</i>
   <i type="int" name="MDALGO">     0</i>
   <i type="int" name="ISIF">     2</i>
   <i name="PSTRESS">      0.00000000</i>
   <i name="EDIFFG">      0.00001000</i>
   <i type="int" name="NFREE">     0</i>
   <i name="POTIM">      0.50000000</i>
   <i name="SMASS">     -3.00000000</i>
   <i name="SCALEE">      1.00000000</i>
  </separator>
  <separator name="ionic md" >
   <i name="TEBEG">      0.00010000</i>
   <i name="TEEND">      0.00010000</i>
   <i type="int" name="NBLOCK">     1</i>
   <i type="int" name="KBLOCK">     1</i>
   <i type="int" name="NPACO">   256</i>
   <i name="APACO">     16.00000000</i>
  </separator>
  <separator name="symmetry" >
   <i type="int" name="ISYM">     2</i>
   <i name="SYMPREC">      0.00001000</i>
  </separator>
  <separator name="dos" >
   <i type="int" name="LORBIT">     0</i>
   <v name="RWIGS">     -1.00000000     -1.00000000</v>
   <i type="int" name="NEDOS">   301</i>
   <i name="EMIN">     10.00000000</i>
   <i name="EMAX">    -10.00000000</i>
   <i name="EFERMI">      0.00000000</i>
  </separator>
  <separator name="writing" >
   <i type="int" name="NWRITE">     2</i>
   <i type="logical" name="LWAVE"> F  </i>
   <i type="logical" name="LDOWNSAMPLE"> F  </i>
   <i type="logical" name="LCHARG"> F  </i>
   <i type="logical" name="LPARD"> F  </i>
   <i type="logical" name="LVTOT"> F  </i>
   <i type="logical" name="LVHAR"> F  </i>
   <i type="logical" name="LELF"> F  </i>
   <i type="logical" name="LOPTICS"> F  </i>
   <v name="STM">      0.00000000      0.00000000      0.00000000      0.00000000      0.00000000      0.00000000      0.00000000</v>
  </separator>
  <separator name="performance" >
   <i type="int" name="NPAR">    16</i>
   <i type="int" name="NSIM">     4</i>
   <i type="int" name="NBLK">    -1</i>
   <i type="logical" name="LPLANE"> T  </i>
   <i type="logical" name="LSCALAPACK"> T  </i>
   <i type="logical" name="LSCAAWARE"> F  </i>
   <i type="logical" name="LSCALU"> F  </i>
   <i type="logical" name="LASYNC"> F  </i>
   <i type="logical" name="LORBITALREAL"> F  </i>
  </separator>
  <separator name="miscellaneous" >
   <i type="int" name="IDIOT">     3</i>
   <i type="int" name="ISPECIAL">     0</i>
   <i type="logical" name="LMUSIC"> F  </i>
   <v name="POMASS">     47.88000000     16.00000000</v>
   <v name="DARWINR">      0.00000000      0.00000000</v>
   <v name="DARWINV">      1.00000000      1.00000000</v>
   <i type="logical" name="LCORR"> T  </i>
  </separator>
  <i type="logical" name="GGA_COMPAT"> T  </i>
  <i type="logical" name="LBERRY"> F  </i>
  <i type="int" name="ICORELEVEL">     0</i>
  <i type="logical" name="LDAU"> F  </i>
  <i type="int" name="I_CONSTRAINED_M">     0</i>
  <separator name="electronic exchange-correlation" >
   <i type="string" name="GGA">--</i>
   <i type="int" name="VOSKOWN">     0</i>
   <i type="logical" name="LHFCALC"> F  </i>
   <i type="string" name="PRECFOCK"></i>
   <i type="logical" name="LSYMGRAD"> F  </i>
   <i type="logical" name="LHFONE"> F  </i>
   <i type="logical" name="LRHFCALC"> F  </i>
   <i type="logical" name="LTHOMAS"> F  </i>
   <i type="logical" name="LMODELHF"> F  </i>
   <i name="ENCUT4O">     -1.00000000</i>
   <i type="int" name="EXXOEP">     0</i>
   <i type="int" name="FOURORBIT">     0</i>
   <i name="AEXX">      0.00000000</i>
   <i name="HFALPHA">      0.00000000</i>
   <i name="MCALPHA">      0.00000000</i>
   <i name="ALDAX">      1.00000000</i>
   <i name="AGGAX">      1.00000000</i>
   <i name="ALDAC">      1.00000000</i>
   <i name="AGGAC">      1.00000000</i>
   <i type="int" name="NKREDX">     1</i>
   <i type="int" name="NKREDY">     1</i>
   <i type="int" name="NKREDZ">     1</i>
   <i type="logical" name="SHIFTRED"> F  </i>
   <i type="logical" name="ODDONLY"> F  </i>
   <i type="logical" name="EVENONLY"> F  </i>
   <i type="int" name="LMAXFOCK">     0</i>
   <i type="int" name="NMAXFOCKAE">     0</i>
   <i type="logical" name="LFOCKAEDFT"> F  </i>
   <i name="HFSCREEN">      0.00000000</i>
   <i name="HFSCREENC">      0.00000000</i>
   <i type="int" name="NBANDSGWLOW">     0</i>
  </separator>
  <separator name="vdW DFT" >
   <i type="logical" name="LUSE_VDW"> F  </i>
   <i name="Zab_VDW">     -0.84910000</i>
   <i name="PARAM1">      0.12340000</i>
   <i name="PARAM2">      1.00000000</i>
   <i name="PARAM3">      0.00000000</i>
  </separator>
  <separator name="model GW" >
   <i type="int" name="MODEL_GW">     0</i>
   <i name="MODEL_EPS0">      6.24347232</i>
   <i name="MODEL_ALPHA">      1.00000000</i>
  </separator>
  <separator name="linear response parameters" >
   <i type="logical" name="LEPSILON"> F  </i>
   <i type="logical" name="LRPA"> F  </i>
   <i type="logical" name="LNABLA"> F  </i>
   <i type="logical" name="LVEL"> F  </i>
   <i type="int" name="KINTER">     0</i>
   <i name="CSHIFT">      0.10000000</i>
   <i name="OMEGAMAX">     -1.00000000</i>
   <i name="DEG_THRESHOLD">      0.00200000</i>
   <i name="RTIME">     -0.10000000</i>
   <i name="WPLASMAI">      0.00000000</i>
   <v name="DFIELD">      0.00000000      0.00000000      0.00000000</v>
   <v name="WPLASMA">      0.00000000      0.00000000      0.00000000      0.00000000      0.00000000      0.00000000      0.00000000      0.00000000      0.00000000</v>
  </separator>
  <separator name="orbital magnetization" >
   <i type="logical" name="NUCIND"> F  </i>
   <v name="MAGPOS">      0.00000000      0.00000000      0.00000000</v>
   <i type="logical" name="LNICSALL"> T  </i>
   <i type="logical" name="ORBITALMAG"> F  </i>
   <i type="logical" name="LMAGBLOCH"> F  </i>
   <i type="logical" name="LCHIMAG"> F  </i>
   <i type="logical" name="LGAUGE"> T  </i>
   <i type="int" name="MAGATOM">     0</i>
   <v name="MAGDIPOL">      0.00000000      0.00000000      0.00000000</v>
   <v name="AVECCONST">      0.00000000      0.00000000      0.00000000</v>
  </separator>
  <separator name="response functions" >
   <i type="logical" name="LADDER"> F  </i>
   <i type="logical" name="LRPAFORCE"> F  </i>
   <i type="logical" name="LFXC"> F  </i>
   <i type="logical" name="LHARTREE"> T  </i>
   <i type="int" name="IBSE">     0</i>
   <v type="int" name="KPOINT">    -1     0     0     0</v>
   <i type="logical" name="LTCTE"> F  </i>
   <i type="logical" name="LTETE"> F  </i>
   <i type="logical" name="LTRIPLET"> F  </i>
   <i type="logical" name="LFXCEPS"> F  </i>
   <i type="logical" name="LFXHEG"> F  </i>
   <i type="int" name="NATURALO">     2</i>
   <i type="logical" name="L2ORDER"> F  </i>
   <i type="logical" name="LMP2LT"> F  </i>
   <i type="logical" name="LUSEW"> F  </i>
   <i name="ENCUTGW">     -2.00000000</i>
   <i name="ENCUTGWSOFT">     -2.00000000</i>
   <i name="ENCUTLF">     -1.00000000</i>
   <i type="int" name="LMAXMP2">    -1</i>
   <i name="SCISSOR">      0.00000000</i>
   <i type="int" name="NOMEGA">     0</i>
   <i type="int" name="NOMEGAR">     0</i>
   <i type="int" name="NBANDSGW">    -1</i>
   <i type="int" name="NBANDSO">    -1</i>
   <i type="int" name="NBANDSV">    -1</i>
   <i type="int" name="NELM">   200</i>
   <i type="int" name="NELMHF">     1</i>
   <i type="int" name="DIM">     3</i>
   <i type="int" name="ANTIRES">     0</i>
   <i name="OMEGAMAX">    -30.00000000</i>
   <i name="OMEGAMIN">    -30.00000000</i>
   <i name="OMEGATL">   -200.00000000</i>
   <i type="int" name="OMEGAGRID">   140</i>
   <i name="CSHIFT">     -0.10000000</i>
   <i type="logical" name="SELFENERGY"> F  </i>
   <i type="logical" name="LSPECTRAL"> F  </i>
   <i type="logical" name="LSPECTRALGW"> F  </i>
   <i type="logical" name="LSINGLES"> F  </i>
   <i type="logical" name="LFERMIGW"> F  </i>
   <i type="logical" name="ODDONLYGW"> F  </i>
   <i type="logical" name="EVENONLYGW"> F  </i>
   <i type="int" name="NKREDLFX">     1</i>
   <i type="int" name="NKREDLFY">     1</i>
   <i type="int" name="NKREDLFZ">     1</i>
   <i type="int" name="MAXMEM">  2800</i>
   <i type="int" name="TELESCOPE">     0</i>
   <i type="int" name="TAUPAR">     1</i>
   <i type="int" name="OMEGAPAR">    -1</i>
   <i name="LAMBDA">      1.00000000</i>
  </separator>
  <separator name="External order field" >
   <i name="OFIELD_KAPPA">      0.00000000</i>
   <v name="OFIELD_K">      0.00000000      0.00000000      0.00000000</v>
   <i name="OFIELD_Q6_NEAR">      0.00000000</i>
   <i name="OFIELD_Q6_FAR">      0.00000000</i>
   <i name="OFIELD_A">      0.00000000</i>
  </separator>
 </parameters>
 <atominfo>
  <atoms>       6 </atoms>
  <types>       2 </types>
  <array name="atoms" >
   <dimension dim="1">ion</dimension>
   <field type="string">element</field>
   <field type="int">atomtype</field>
   <set>
    <rc><c>Ti</c><c>   1</c></rc>
    <rc><c>Ti</c><c>   1</c></rc>
    <rc><c>O </c><c>   2</c></rc>
    <rc><c>O </c><c>   2</c></rc>
    <rc><c>O </c><c>   2</c></rc>
    <rc><c>O </c><c>   2</c></rc>
   </set>
  </array>
  <array name="atomtypes" >
   <dimension dim="1">type</dimension>
   <field type="int">atomspertype</field>
   <field type="string">element</field>
   <field>mass</field>
   <field>valence</field>
   <field type="string">pseudopotential</field>
   <set>
    <rc><c>   2</c><c>Ti</c><c>     47.88000000</c><c>     12.00000000</c><c>  PAW_PBE Ti_sv 26Sep2005               </c></rc>
    <rc><c>   4</c><c>O </c><c>     16.00000000</c><c>      6.00000000</c><c>  PAW_PBE O 08Apr2002                   </c></rc>
   </set>
  </array>
 </atominfo>
 <structure name="initialpos" >
  <crystal>
   <varray name="basis" >
    <v>       4.59370000       0.00000000       0.00000000 </v>
    <v>       0.00000000       4.59370000       0.00000000 </v>
    <v>       0.00000000       0.00000000       2.95870000 </v>
   </varray>
   <i name="volume">     62.43472318 </i>
   <varray name="rec_basis" >
    <v>       0.21768944       0.00000000       0.00000000 </v>
    <v>       0.00000000       0.21768944       0.00000000 </v>
    <v>       0.00000000       0.00000000       0.33798628 </v>
   </varray>
  </crystal>
  <varray name="positions" >
   <v>       0.00000000       0.00000000       0.00000000 </v>
   <v>       0.50000000       0.50000000       0.50000000 </v>
   <v>       0.30478000       0.30478000       0.00000000 </v>
   <v>       0.69522000       0.69522000       0.00000000 </v>
   <v>       0.80478000       0.19522000       0.50000000 </v>
   <v>       0.19522000       0.80478000       0.50000000 </v>
  </varray>
 </structure>
 <calculation>
  <scstep>
   <time name="dav">    0.11    0.12</time>
   <time name="total">    0.12    0.13</time>
   <energy>
    <i name="alphaZ">    198.61100991 </i>
    <i name="ewald">  -3596.18025831 </i>
    <i name="hartreedc">  -1255.84276384 </i>
    <i name="XCdc">    235.27241290 </i>
    <i name="pawpsdc">   3915.32828904 </i>
    <i name="pawaedc">  -3883.35319469 </i>
    <i name="eentropy">     -0.00244107 </i>
    <i name="bandstr">    -16.21354236 </i>
    <i name="atom">   4905.59488958 </i>
    <i name="e_fr_energy">    503.21440115 </i>
    <i name="e_wo_entrp">    503.21684222 </i>
    <i name="e_0_energy">    503.21562169 </i>
   </energy>
  </scstep>
  <scstep>
   <time name="dav">    0.13    0.13</time>
   <time name="total">    0.13    0.13</time>
   <energy>
    <i name="e_fr_energy">    -34.15818793 </i>
    <i name="e_wo_entrp">    -34.15818793 </i>
    <i name="e_0_energy">    -34.15818793 </i>
   </energy>
  </scstep>
  <scstep>
   <time name="dav">    0.16    0.16</time>
   <time name="total">    0.16    0.16</time>
   <energy>
    <i name="e_fr_energy">    -70.31434693 </i>
    <i name="e_wo_entrp">    -70.31434693 </i>
    <i name="e_0_energy">    -70.31434693 </i>
   </energy>
  </scstep>
  <scstep>
   <time name="dav">    0.14    0.14</time>
   <time name="total">    0.14    0.14</time>
   <energy>
    <i name="e_fr_energy">    -71.11400761 </i>
    <i name="e_wo_entrp">    -71.11400761 </i>
    <i name="e_0_energy">    -71.11400761 </i>
   </energy>
  </scstep>
  <scstep>
   <time name="dav">    0.13    0.13</time>
   <time name="total">    0.13    0.13</time>
   <energy>
    <i name="e_fr_energy">    -71.13545576 </i>
    <i name="e_wo_entrp">    -71.13545576 </i>
    <i name="e_0_energy">    -71.13545576 </i>
   </energy>
  </scstep>
  <scstep>
   <time name="dav">    0.13    0.13</time>
   <time name="total">    0.14    0.14</time>
   <energy>
    <i name="e_fr_energy">    -54.39001712 </i>
    <i name="e_wo_entrp">    -54.39001712 </i>
    <i name="e_0_energy">    -54.39001712 </i>
   </energy>
  </scstep>
  <scstep>
   <time name="dav">    0.12    0.12</time>
   <time name="total">    0.13    0.13</time>
   <energy>
    <i name="e_fr_energy">    -53.87782920 </i>
    <i name="e_wo_entrp">    -53.87782920 </i>
    <i name="e_0_energy">    -53.87782920 </i>
   </energy>
  </scstep>
  <scstep>
   <time name="dav">    0.12    0.12</time>
   <time name="total">    0.13    0.13</time>
   <energy>
    <i name="e_fr_energy">    -53.98493483 </i>
    <i name="e_wo_entrp">    -53.98493483 </i>
    <i name="e_0_energy">    -53.98493483 </i>
   </energy>
  </scstep>
  <scstep>
   <time name="dav">    0.12    0.12</time>
   <time name="total">    0.13    0.13</time>
   <energy>
    <i name="e_fr_energy">    -53.67873232 </i>
    <i name="e_wo_entrp">    -53.67873232 </i>
    <i name="e_0_energy">    -53.67873232 </i>
   </energy>
  </scstep>
  <scstep>
   <time name="dav">    0.11    0.11</time>
   <time name="total">    0.13    0.13</time>
   <energy>
    <i name="e_fr_energy">    -53.64237123 </i>
    <i name="e_wo_entrp">    -53.64237123 </i>
    <i name="e_0_energy">    -53.64237123 </i>
   </energy>
  </scstep>
  <scstep>
   <time name="dav">    0.11    0.11</time>
   <time name="total">    0.12    0.12</time>
   <energy>
    <i name="e_fr_energy">    -53.64244575 </i>
    <i name="e_wo_entrp">    -53.64244575 </i>
    <i name="e_0_energy">    -53.64244575 </i>
   </energy>
  </scstep>
  <scstep>
   <time name="dav">    0.14    0.14</time>
   <time name="total">    0.15    0.15</time>
   <energy>
    <i name="e_fr_energy">    -53.64245737 </i>
    <i name="e_wo_entrp">    -53.64245737 </i>
    <i name="e_0_energy">    -53.64245737 </i>
   </energy>
  </scstep>
  <scstep>
   <time name="dav">    0.11    0.11</time>
   <time name="total">    0.12    0.12</time>
   <energy>
    <i name="e_fr_energy">    -53.64245372 </i>
    <i name="e_wo_entrp">    -53.64245372 </i>
    <i name="e_0_energy">    -53.64245372 </i>
   </energy>
  </scstep>
  <scstep>
   <time name="dav">    0.13    0.13</time>
   <time name="total">    0.14    0.14</time>
   <energy>
    <i name="e_fr_energy">    -53.64245296 </i>
    <i name="e_wo_entrp">    -53.64245296 </i>
    <i name="e_0_energy">    -53.64245296 </i>
   </energy>
  </scstep>
  <scstep>
   <time name="dav">    0.11    0.11</time>
   <time name="total">    0.11    0.11</time>
   <energy>
    <i name="alphaZ">    198.61100991 </i>
    <i name="ewald">  -3596.18025831 </i>
    <i name="hartreedc">  -1239.08969475 </i>
    <i name="XCdc">    236.57548939 </i>
    <i name="pawpsdc">   5505.09879792 </i>
    <i name="pawaedc">  -5466.60315851 </i>
    <i name="eentropy">     -0.00000000 </i>
    <i name="bandstr">   -597.64952819 </i>
    <i name="atom">   4905.59488958 </i>
    <i name="e_fr_energy">    -53.64245297 </i>
    <i name="e_wo_entrp">    -53.64245297 </i>
    <i name="e_0_energy">    -53.64245297 </i>
   </energy>
  </scstep>
  <structure>
   <crystal>
    <varray name="basis" >
     <v>       4.59370000       0.00000000       0.00000000 </v>
     <v>       0.00000000       4.59370000       0.00000000 </v>
     <v>       0.00000000       0.00000000       2.95870000 </v>
    </varray>
    <i name="volume">     62.43472318 </i>
    <varray name="rec_basis" >
     <v>       0.21768944       0.00000000       0.00000000 </v>
     <v>       0.00000000       0.21768944       0.00000000 </v>
     <v>       0.00000000       0.00000000       0.33798628 </v>
    </varray>
   </crystal>
   <varray name="positions" >
    <v>       0.00000000       0.00000000       0.00000000 </v>
    <v>       0.50000000       0.50000000       0.50000000 </v>
    <v>       0.30478000       0.30478000       0.00000000 </v>
    <v>       0.69522000       0.69522000       0.00000000 </v>
    <v>       0.80478000       0.19522000       0.50000000 </v>
    <v>       0.19522000       0.80478000       0.50000000 </v>
   </varray>
  </structure>
  <varray name="forces" >
   <v>       0.00000000       0.00000000      -0.00000000 </v>
   <v>       0.00000000       0.00000000      -0.00000000 </v>
   <v>      -0.06749822      -0.06749822      -0.00000000 </v>
   <v>       0.06749822       0.06749822       0.00000000 </v>
   <v>      -0.06749822       0.06749822       0.00000000 </v>
   <v>       0.06749822      -0.06749822      -0.00000000 </v>
  </varray>
  <varray name="stress" >
   <v>      58.21075443       0.00000000       0.00000000 </v>
   <v>       0.00000000      58.21075443       0.00000000 </v>
   <v>       0.00000000       0.00000000      52.49809392 </v>
  </varray>
  <energy>
   <i name="e_fr_energy">    -53.64245297 </i>
   <i name="e_wo_entrp">    -53.64245297 </i>
   <i name="e_0_energy">     -0.00000000 </i>
  </energy>
  <time name="totalsc">    2.14    2.16</time>
  <eigenvalues>
   <array>
    <dimension dim="1">band</dimension>
    <dimension dim="2">kpoint</dimension>
    <dimension dim="3">spin</dimension>
    <field>eigene</field>
    <field>occ</field>
    <set>
     <set comment="spin 1">
      <set comment="kpoint 1">
       <r>  -52.0719    1.0000 </r>
       <r>  -52.0547    1.0000 </r>
       <r>  -28.3798    1.0000 </r>
       <r>  -28.3798    1.0000 </r>
       <r>  -28.2141    1.0000 </r>
       <r>  -28.2141    1.0000 </r>
       <r>  -28.1722    1.0000 </r>
       <r>  -28.1386    1.0000 </r>
       <r>  -13.3567    1.0000 </r>
       <r>  -12.1904    1.0000 </r>
       <r>  -11.4531    1.0000 </r>
       <r>  -11.4531    1.0000 </r>
       <r>   -0.9181    1.0000 </r>
       <r>   -0.5002    1.0000 </r>
       <r>   -0.0636    1.0000 </r>
       <r>    1.0221    1.0000 </r>
       <r>    1.0221    1.0000 </r>
       <r>    2.3003    1.0000 </r>
       <r>    2.3003    1.0000 </r>
       <r>    2.8662    1.0000 </r>
       <r>    4.1460    1.0000 </r>
       <r>    4.4046    1.0000 </r>
       <r>    4.4046    1.0000 </r>
       <r>    4.8545    1.0000 </r>
       <r>    6.7109    0.0000 </r>
       <r>    7.0140    0.0000 </r>
       <r>    7.2439    0.0000 </r>
       <r>    7.3368    0.0000 </r>
       <r>    7.3368    0.0000 </r>
       <r>    9.2264    0.0000 </r>
       <r>    9.4101    0.0000 </r>
       <r>   11.4612    0.0000 </r>
      </set>
      <set comment="kpoint 2">
       <r>  -52.0694    1.0000 </r>
       <r>  -52.0572    1.0000 </r>
       <r>  -28.3607    1.0000 </r>
       <r>  -28.3591    1.0000 </r>
       <r>  -28.2369    1.0000 </r>
       <r>  -28.2353    1.0000 </r>
       <r>  -28.1673    1.0000 </r>
       <r>  -28.1435    1.0000 </r>
       <r>  -13.1430    1.0000 </r>
       <r>  -12.2237    1.0000 </r>
       <r>  -11.6354    1.0000 </r>
       <r>  -11.5331    1.0000 </r>
       <r>   -0.5524    1.0000 </r>
       <r>   -0.2693    1.0000 </r>
       <r>    0.3535    1.0000 </r>
       <r>    1.0452    1.0000 </r>
       <r>    1.0585    1.0000 </r>
       <r>    1.9624    1.0000 </r>
       <r>    2.1723    1.0000 </r>
       <r>    2.9104    1.0000 </r>
       <r>    3.4199    1.0000 </r>
       <r>    3.7860    1.0000 </r>
       <r>    4.0322    1.0000 </r>
       <r>    4.6216    1.0000 </r>
       <r>    7.0082    0.0000 </r>
       <r>    7.3374    0.0000 </r>
       <r>    7.5627    0.0000 </r>
       <r>    7.6330    0.0000 </r>
       <r>    7.6480    0.0000 </r>
       <r>    9.1028    0.0000 </r>
       <r>    9.7136    0.0000 </r>
       <r>   11.3075    0.0000 </r>
      </set>
      <set comment="kpoint 3">
       <r>  -52.0633    1.0000 </r>
       <r>  -52.0633    1.0000 </r>
       <r>  -28.3275    1.0000 </r>
       <r>  -28.3275    1.0000 </r>
       <r>  -28.2707    1.0000 </r>
       <r>  -28.2707    1.0000 </r>
       <r>  -28.1554    1.0000 </r>
       <r>  -28.1554    1.0000 </r>
       <r>  -12.6198    1.0000 </r>
       <r>  -12.6198    1.0000 </r>
       <r>  -11.6874    1.0000 </r>
       <r>  -11.6874    1.0000 </r>
       <r>   -0.0671    1.0000 </r>
       <r>   -0.0671    1.0000 </r>
       <r>    1.0815    1.0000 </r>
       <r>    1.0815    1.0000 </r>
       <r>    1.6122    1.0000 </r>
       <r>    1.6122    1.0000 </r>
       <r>    1.8049    1.0000 </r>
       <r>    1.8049    1.0000 </r>
       <r>    3.2067    1.0000 </r>
       <r>    3.2067    1.0000 </r>
       <r>    4.1089    1.0000 </r>
       <r>    4.1089    1.0000 </r>
       <r>    7.3833    0.0000 </r>
       <r>    7.3833    0.0000 </r>
       <r>    7.8590    0.0000 </r>
       <r>    7.8590    0.0000 </r>
       <r>    8.4031    0.0000 </r>
       <r>    8.4031    0.0000 </r>
       <r>   10.9370    0.0000 </r>
       <r>   10.9370    0.0000 </r>
      </set>
      <set comment="kpoint 4">
       <r>  -52.0676    1.0000 </r>
       <r>  -52.0590    1.0000 </r>
       <r>  -28.3860    1.0000 </r>
       <r>  -28.3279    1.0000 </r>
       <r>  -28.2702    1.0000 </r>
       <r>  -28.2103    1.0000 </r>
       <r>  -28.1638    1.0000 </r>
       <r>  -28.1469    1.0000 </r>
       <r>  -13.0036    1.0000 </r>
       <r>  -12.3189    1.0000 </r>
       <r>  -11.7159    1.0000 </r>
       <r>  -11.5200    1.0000 </r>
       <r>   -0.7070    1.0000 </r>
       <r>    0.0033    1.0000 </r>
       <r>    0.6659    1.0000 </r>
       <r>    0.9867    1.0000 </r>
       <r>    1.0819    1.0000 </r>
       <r>    1.7967    1.0000 </r>
       <r>    2.4241    1.0000 </r>
       <r>    3.0182    1.0000 </r>
       <r>    3.1154    1.0000 </r>
       <r>    3.7092    1.0000 </r>
       <r>    3.7349    1.0000 </r>
       <r>    4.4503    1.0000 </r>
       <r>    6.7870    0.0000 </r>
       <r>    7.3473    0.0000 </r>
       <r>    7.4253    0.0000 </r>
       <r>    7.8639    0.0000 </r>
       <r>    7.9884    0.0000 </r>
       <r>    8.9723    0.0000 </r>
       <r>    9.9647    0.0000 </r>
       <r>   11.1028    0.0000 </r>
      </set>
      <set comment="kpoint 5">
       <r>  -52.0633    1.0000 </r>
       <r>  -52.0633    1.0000 </r>
       <r>  -28.3679    1.0000 </r>
       <r>  -28.3679    1.0000 </r>
       <r>  -28.2306    1.0000 </r>
       <r>  -28.2306    1.0000 </r>
       <r>  -28.1553    1.0000 </r>
       <r>  -28.1553    1.0000 </r>
       <r>  -12.6571    1.0000 </r>
       <r>  -12.6571    1.0000 </r>
       <r>  -11.6343    1.0000 </r>
       <r>  -11.6343    1.0000 </r>
       <r>   -0.4131    1.0000 </r>
       <r>   -0.4131    1.0000 </r>
       <r>    1.0134    1.0000 </r>
       <r>    1.0134    1.0000 </r>
       <r>    1.5794    1.0000 </r>
       <r>    1.5794    1.0000 </r>
       <r>    2.6322    1.0000 </r>
       <r>    2.6322    1.0000 </r>
       <r>    3.3724    1.0000 </r>
       <r>    3.3724    1.0000 </r>
       <r>    3.7633    1.0000 </r>
       <r>    3.7633    1.0000 </r>
       <r>    7.1154    0.0000 </r>
       <r>    7.1154    0.0000 </r>
       <r>    7.6049    0.0000 </r>
       <r>    7.6049    0.0000 </r>
       <r>    8.5496    0.0000 </r>
       <r>    8.5496    0.0000 </r>
       <r>   10.7759    0.0000 </r>
       <r>   10.7759    0.0000 </r>
      </set>
      <set comment="kpoint 6">
       <r>  -52.0632    1.0000 </r>
       <r>  -52.0632    1.0000 </r>
       <r>  -28.3922    1.0000 </r>
       <r>  -28.3922    1.0000 </r>
       <r>  -28.2065    1.0000 </r>
       <r>  -28.2065    1.0000 </r>
       <r>  -28.1552    1.0000 </r>
       <r>  -28.1552    1.0000 </r>
       <r>  -12.6912    1.0000 </r>
       <r>  -12.6912    1.0000 </r>
       <r>  -11.5839    1.0000 </r>
       <r>  -11.5839    1.0000 </r>
       <r>   -0.6916    1.0000 </r>
       <r>   -0.6916    1.0000 </r>
       <r>    0.9516    1.0000 </r>
       <r>    0.9516    1.0000 </r>
       <r>    1.9978    1.0000 </r>
       <r>    1.9978    1.0000 </r>
       <r>    2.6693    1.0000 </r>
       <r>    2.6693    1.0000 </r>
       <r>    3.5416    1.0000 </r>
       <r>    3.5416    1.0000 </r>
       <r>    3.7923    1.0000 </r>
       <r>    3.7923    1.0000 </r>
       <r>    6.7516    0.0000 </r>
       <r>    6.7516    0.0000 </r>
       <r>    7.3588    0.0000 </r>
       <r>    7.3588    0.0000 </r>
       <r>    8.6703    0.0000 </r>
       <r>    8.6703    0.0000 </r>
       <r>   10.6538    0.0000 </r>
       <r>   10.6538    0.0000 </r>
      </set>
      <set comment="kpoint 7">
       <r>  -52.0608    1.0000 </r>
       <r>  -52.0459    1.0000 </r>
       <r>  -28.3501    1.0000 </r>
       <r>  -28.3501    1.0000 </r>
       <r>  -28.2846    1.0000 </r>
       <r>  -28.2568    1.0000 </r>
       <r>  -28.2095    1.0000 </r>
       <r>  -28.2095    1.0000 </r>
       <r>  -13.0785    1.0000 </r>
       <r>  -12.0384    1.0000 </r>
       <r>  -11.5833    1.0000 </r>
       <r>  -11.5833    1.0000 </r>
       <r>   -0.5299    1.0000 </r>
       <r>   -0.2103    1.0000 </r>
       <r>    0.2532    1.0000 </r>
       <r>    0.7962    1.0000 </r>
       <r>    0.7962    1.0000 </r>
       <r>    2.1223    1.0000 </r>
       <r>    2.7721    1.0000 </r>
       <r>    2.7721    1.0000 </r>
       <r>    3.1564    1.0000 </r>
       <r>    3.8827    1.0000 </r>
       <r>    3.8827    1.0000 </r>
       <r>    4.6929    1.0000 </r>
       <r>    7.0970    0.0000 </r>
       <r>    7.2318    0.0000 </r>
       <r>    7.2765    0.0000 </r>
       <r>    7.6711    0.0000 </r>
       <r>    7.6711    0.0000 </r>
       <r>    9.1881    0.0000 </r>
       <r>    9.6059    0.0000 </r>
       <r>   11.1073    0.0000 </r>
      </set>
      <set comment="kpoint 8">
       <r>  -52.0586    1.0000 </r>
       <r>  -52.0481    1.0000 </r>
       <r>  -28.3399    1.0000 </r>
       <r>  -28.3320    1.0000 </r>
       <r>  -28.2777    1.0000 </r>
       <r>  -28.2738    1.0000 </r>
       <r>  -28.2241    1.0000 </r>
       <r>  -28.2161    1.0000 </r>
       <r>  -12.8897    1.0000 </r>
       <r>  -12.0436    1.0000 </r>
       <r>  -11.7600    1.0000 </r>
       <r>  -11.6457    1.0000 </r>
       <r>   -0.2189    1.0000 </r>
       <r>    0.0415    1.0000 </r>
       <r>    0.4047    1.0000 </r>
       <r>    0.7544    1.0000 </r>
       <r>    1.1449    1.0000 </r>
       <r>    1.9619    1.0000 </r>
       <r>    2.2297    1.0000 </r>
       <r>    2.6839    1.0000 </r>
       <r>    2.7444    1.0000 </r>
       <r>    3.6534    1.0000 </r>
       <r>    3.8051    1.0000 </r>
       <r>    4.4848    1.0000 </r>
       <r>    7.2174    0.0000 </r>
       <r>    7.5324    0.0000 </r>
       <r>    7.5933    0.0000 </r>
       <r>    7.6848    0.0000 </r>
       <r>    7.9697    0.0000 </r>
       <r>    8.9303    0.0000 </r>
       <r>    9.9560    0.0000 </r>
       <r>   10.7038    0.0000 </r>
      </set>
      <set comment="kpoint 9">
       <r>  -52.0533    1.0000 </r>
       <r>  -52.0533    1.0000 </r>
       <r>  -28.3108    1.0000 </r>
       <r>  -28.3108    1.0000 </r>
       <r>  -28.2907    1.0000 </r>
       <r>  -28.2907    1.0000 </r>
       <r>  -28.2319    1.0000 </r>
       <r>  -28.2319    1.0000 </r>
       <r>  -12.4198    1.0000 </r>
       <r>  -12.4198    1.0000 </r>
       <r>  -11.7772    1.0000 </r>
       <r>  -11.7772    1.0000 </r>
       <r>    0.2584    1.0000 </r>
       <r>    0.2584    1.0000 </r>
       <r>    0.7257    1.0000 </r>
       <r>    0.7257    1.0000 </r>
       <r>    1.5458    1.0000 </r>
       <r>    1.5458    1.0000 </r>
       <r>    2.1517    1.0000 </r>
       <r>    2.1517    1.0000 </r>
       <r>    2.6887    1.0000 </r>
       <r>    2.6887    1.0000 </r>
       <r>    4.1511    1.0000 </r>
       <r>    4.1511    1.0000 </r>
       <r>    7.5356    0.0000 </r>
       <r>    7.5356    0.0000 </r>
       <r>    7.9292    0.0000 </r>
       <r>    7.9292    0.0000 </r>
       <r>    8.4025    0.0000 </r>
       <r>    8.4025    0.0000 </r>
       <r>   10.3394    0.0000 </r>
       <r>   10.3394    0.0000 </r>
      </set>
      <set comment="kpoint 10">
       <r>  -52.0570    1.0000 </r>
       <r>  -52.0496    1.0000 </r>
       <r>  -28.3557    1.0000 </r>
       <r>  -28.3058    1.0000 </r>
       <r>  -28.3004    1.0000 </r>
       <r>  -28.2658    1.0000 </r>
       <r>  -28.2319    1.0000 </r>
       <r>  -28.2062    1.0000 </r>
       <r>  -12.7614    1.0000 </r>
       <r>  -12.1287    1.0000 </r>
       <r>  -11.8199    1.0000 </r>
       <r>  -11.6442    1.0000 </r>
       <r>   -0.3896    1.0000 </r>
       <r>    0.3400    1.0000 </r>
       <r>    0.3754    1.0000 </r>
       <r>    0.7391    1.0000 </r>
       <r>    1.3682    1.0000 </r>
       <r>    1.8330    1.0000 </r>
       <r>    2.3498    1.0000 </r>
       <r>    2.6426    1.0000 </r>
       <r>    2.7960    1.0000 </r>
       <r>    3.6589    1.0000 </r>
       <r>    3.6650    1.0000 </r>
       <r>    4.1787    1.0000 </r>
       <r>    7.1926    0.0000 </r>
       <r>    7.2899    0.0000 </r>
       <r>    7.6502    0.0000 </r>
       <r>    8.0212    0.0000 </r>
       <r>    8.0616    0.0000 </r>
       <r>    8.7732    0.0000 </r>
       <r>   10.1147    0.0000 </r>
       <r>   10.5825    0.0000 </r>
      </set>
      <set comment="kpoint 11">
       <r>  -52.0533    1.0000 </r>
       <r>  -52.0533    1.0000 </r>
       <r>  -28.3428    1.0000 </r>
       <r>  -28.3428    1.0000 </r>
       <r>  -28.2746    1.0000 </r>
       <r>  -28.2746    1.0000 </r>
       <r>  -28.2165    1.0000 </r>
       <r>  -28.2165    1.0000 </r>
       <r>  -12.4457    1.0000 </r>
       <r>  -12.4457    1.0000 </r>
       <r>  -11.7391    1.0000 </r>
       <r>  -11.7391    1.0000 </r>
       <r>   -0.1001    1.0000 </r>
       <r>   -0.1001    1.0000 </r>
       <r>    0.5203    1.0000 </r>
       <r>    0.5203    1.0000 </r>
       <r>    1.9885    1.0000 </r>
       <r>    1.9885    1.0000 </r>
       <r>    2.5793    1.0000 </r>
       <r>    2.5793    1.0000 </r>
       <r>    2.9362    1.0000 </r>
       <r>    2.9362    1.0000 </r>
       <r>    3.7448    1.0000 </r>
       <r>    3.7448    1.0000 </r>
       <r>    7.4368    0.0000 </r>
       <r>    7.4368    0.0000 </r>
       <r>    7.6906    0.0000 </r>
       <r>    7.6906    0.0000 </r>
       <r>    8.3928    0.0000 </r>
       <r>    8.3928    0.0000 </r>
       <r>   10.5902    0.0000 </r>
       <r>   10.5902    0.0000 </r>
      </set>
      <set comment="kpoint 12">
       <r>  -52.0532    1.0000 </r>
       <r>  -52.0532    1.0000 </r>
       <r>  -28.3612    1.0000 </r>
       <r>  -28.3612    1.0000 </r>
       <r>  -28.2703    1.0000 </r>
       <r>  -28.2703    1.0000 </r>
       <r>  -28.2029    1.0000 </r>
       <r>  -28.2029    1.0000 </r>
       <r>  -12.4692    1.0000 </r>
       <r>  -12.4692    1.0000 </r>
       <r>  -11.7032    1.0000 </r>
       <r>  -11.7032    1.0000 </r>
       <r>   -0.3804    1.0000 </r>
       <r>   -0.3804    1.0000 </r>
       <r>    0.4166    1.0000 </r>
       <r>    0.4166    1.0000 </r>
       <r>    2.7152    1.0000 </r>
       <r>    2.7152    1.0000 </r>
       <r>    2.8144    1.0000 </r>
       <r>    2.8144    1.0000 </r>
       <r>    2.8570    1.0000 </r>
       <r>    2.8570    1.0000 </r>
       <r>    3.4517    1.0000 </r>
       <r>    3.4517    1.0000 </r>
       <r>    7.1980    0.0000 </r>
       <r>    7.1980    0.0000 </r>
       <r>    7.5429    0.0000 </r>
       <r>    7.5429    0.0000 </r>
       <r>    8.4002    0.0000 </r>
       <r>    8.4002    0.0000 </r>
       <r>   10.7862    0.0000 </r>
       <r>   10.7862    0.0000 </r>
      </set>
      <set comment="kpoint 13">
       <r>  -52.0376    1.0000 </r>
       <r>  -52.0289    1.0000 </r>
       <r>  -28.5019    1.0000 </r>
       <r>  -28.4874    1.0000 </r>
       <r>  -28.2843    1.0000 </r>
       <r>  -28.2843    1.0000 </r>
       <r>  -28.2059    1.0000 </r>
       <r>  -28.2059    1.0000 </r>
       <r>  -12.4409    1.0000 </r>
       <r>  -11.8405    1.0000 </r>
       <r>  -11.8405    1.0000 </r>
       <r>  -11.8004    1.0000 </r>
       <r>    0.2715    1.0000 </r>
       <r>    0.3334    1.0000 </r>
       <r>    0.8301    1.0000 </r>
       <r>    0.8301    1.0000 </r>
       <r>    1.0787    1.0000 </r>
       <r>    1.1577    1.0000 </r>
       <r>    1.7635    1.0000 </r>
       <r>    2.8195    1.0000 </r>
       <r>    2.8195    1.0000 </r>
       <r>    3.2836    1.0000 </r>
       <r>    3.2836    1.0000 </r>
       <r>    3.8697    1.0000 </r>
       <r>    7.1901    0.0000 </r>
       <r>    7.5599    0.0000 </r>
       <r>    7.9791    0.0000 </r>
       <r>    8.2563    0.0000 </r>
       <r>    8.2563    0.0000 </r>
       <r>    8.5858    0.0000 </r>
       <r>   10.1457    0.0000 </r>
       <r>   10.8341    0.0000 </r>
      </set>
      <set comment="kpoint 14">
       <r>  -52.0363    1.0000 </r>
       <r>  -52.0302    1.0000 </r>
       <r>  -28.5066    1.0000 </r>
       <r>  -28.4958    1.0000 </r>
       <r>  -28.2715    1.0000 </r>
       <r>  -28.2682    1.0000 </r>
       <r>  -28.2157    1.0000 </r>
       <r>  -28.2129    1.0000 </r>
       <r>  -12.3781    1.0000 </r>
       <r>  -12.0148    1.0000 </r>
       <r>  -11.8117    1.0000 </r>
       <r>  -11.7207    1.0000 </r>
       <r>    0.3115    1.0000 </r>
       <r>    0.4032    1.0000 </r>
       <r>    0.4953    1.0000 </r>
       <r>    0.7441    1.0000 </r>
       <r>    1.2654    1.0000 </r>
       <r>    1.3473    1.0000 </r>
       <r>    1.8513    1.0000 </r>
       <r>    2.6786    1.0000 </r>
       <r>    2.8247    1.0000 </r>
       <r>    3.1781    1.0000 </r>
       <r>    3.3520    1.0000 </r>
       <r>    4.0645    1.0000 </r>
       <r>    6.9529    0.0000 </r>
       <r>    7.7591    0.0000 </r>
       <r>    7.8260    0.0000 </r>
       <r>    8.0457    0.0000 </r>
       <r>    8.4438    0.0000 </r>
       <r>    8.6564    0.0000 </r>
       <r>   10.0646    0.0000 </r>
       <r>   10.0847    0.0000 </r>
      </set>
      <set comment="kpoint 15">
       <r>  -52.0332    1.0000 </r>
       <r>  -52.0332    1.0000 </r>
       <r>  -28.5074    1.0000 </r>
       <r>  -28.5074    1.0000 </r>
       <r>  -28.2468    1.0000 </r>
       <r>  -28.2468    1.0000 </r>
       <r>  -28.2318    1.0000 </r>
       <r>  -28.2318    1.0000 </r>
       <r>  -12.2196    1.0000 </r>
       <r>  -12.2196    1.0000 </r>
       <r>  -11.7443    1.0000 </r>
       <r>  -11.7443    1.0000 </r>
       <r>    0.3068    1.0000 </r>
       <r>    0.3068    1.0000 </r>
       <r>    0.6263    1.0000 </r>
       <r>    0.6263    1.0000 </r>
       <r>    1.3644    1.0000 </r>
       <r>    1.3644    1.0000 </r>
       <r>    2.1709    1.0000 </r>
       <r>    2.1709    1.0000 </r>
       <r>    3.0246    1.0000 </r>
       <r>    3.0246    1.0000 </r>
       <r>    3.8392    1.0000 </r>
       <r>    3.8392    1.0000 </r>
       <r>    7.1200    0.0000 </r>
       <r>    7.1200    0.0000 </r>
       <r>    8.0831    0.0000 </r>
       <r>    8.0831    0.0000 </r>
       <r>    8.6135    0.0000 </r>
       <r>    8.6135    0.0000 </r>
       <r>    9.8019    0.0000 </r>
       <r>    9.8019    0.0000 </r>
      </set>
      <set comment="kpoint 16">
       <r>  -52.0353    1.0000 </r>
       <r>  -52.0310    1.0000 </r>
       <r>  -28.5070    1.0000 </r>
       <r>  -28.4948    1.0000 </r>
       <r>  -28.2880    1.0000 </r>
       <r>  -28.2465    1.0000 </r>
       <r>  -28.2319    1.0000 </r>
       <r>  -28.2042    1.0000 </r>
       <r>  -12.3126    1.0000 </r>
       <r>  -11.9967    1.0000 </r>
       <r>  -11.8916    1.0000 </r>
       <r>  -11.7217    1.0000 </r>
       <r>    0.2566    1.0000 </r>
       <r>    0.3058    1.0000 </r>
       <r>    0.3112    1.0000 </r>
       <r>    0.7836    1.0000 </r>
       <r>    1.0210    1.0000 </r>
       <r>    1.7587    1.0000 </r>
       <r>    2.1261    1.0000 </r>
       <r>    2.4559    1.0000 </r>
       <r>    2.7794    1.0000 </r>
       <r>    3.2823    1.0000 </r>
       <r>    3.5212    1.0000 </r>
       <r>    4.1466    1.0000 </r>
       <r>    6.9490    0.0000 </r>
       <r>    7.7299    0.0000 </r>
       <r>    7.9296    0.0000 </r>
       <r>    8.0041    0.0000 </r>
       <r>    8.1952    0.0000 </r>
       <r>    8.6842    0.0000 </r>
       <r>    9.7464    0.0000 </r>
       <r>   10.7124    0.0000 </r>
      </set>
      <set comment="kpoint 17">
       <r>  -52.0332    1.0000 </r>
       <r>  -52.0332    1.0000 </r>
       <r>  -28.5009    1.0000 </r>
       <r>  -28.5009    1.0000 </r>
       <r>  -28.2744    1.0000 </r>
       <r>  -28.2744    1.0000 </r>
       <r>  -28.2117    1.0000 </r>
       <r>  -28.2117    1.0000 </r>
       <r>  -12.1500    1.0000 </r>
       <r>  -12.1500    1.0000 </r>
       <r>  -11.8103    1.0000 </r>
       <r>  -11.8103    1.0000 </r>
       <r>    0.1526    1.0000 </r>
       <r>    0.1526    1.0000 </r>
       <r>    0.4694    1.0000 </r>
       <r>    0.4694    1.0000 </r>
       <r>    1.4048    1.0000 </r>
       <r>    1.4048    1.0000 </r>
       <r>    2.4988    1.0000 </r>
       <r>    2.4988    1.0000 </r>
       <r>    3.0474    1.0000 </r>
       <r>    3.0474    1.0000 </r>
       <r>    3.8927    1.0000 </r>
       <r>    3.8927    1.0000 </r>
       <r>    7.3161    0.0000 </r>
       <r>    7.3161    0.0000 </r>
       <r>    7.9306    0.0000 </r>
       <r>    7.9306    0.0000 </r>
       <r>    8.3845    0.0000 </r>
       <r>    8.3845    0.0000 </r>
       <r>   10.1565    0.0000 </r>
       <r>   10.1565    0.0000 </r>
      </set>
      <set comment="kpoint 18">
       <r>  -52.0332    1.0000 </r>
       <r>  -52.0332    1.0000 </r>
       <r>  -28.4939    1.0000 </r>
       <r>  -28.4939    1.0000 </r>
       <r>  -28.2917    1.0000 </r>
       <r>  -28.2917    1.0000 </r>
       <r>  -28.2026    1.0000 </r>
       <r>  -28.2026    1.0000 </r>
       <r>  -12.0153    1.0000 </r>
       <r>  -12.0153    1.0000 </r>
       <r>  -11.9416    1.0000 </r>
       <r>  -11.9416    1.0000 </r>
       <r>    0.1155    1.0000 </r>
       <r>    0.1155    1.0000 </r>
       <r>    0.2031    1.0000 </r>
       <r>    0.2031    1.0000 </r>
       <r>    1.5585    1.0000 </r>
       <r>    1.5585    1.0000 </r>
       <r>    2.5577    1.0000 </r>
       <r>    2.5577    1.0000 </r>
       <r>    3.2981    1.0000 </r>
       <r>    3.2981    1.0000 </r>
       <r>    3.8646    1.0000 </r>
       <r>    3.8646    1.0000 </r>
       <r>    7.7909    0.0000 </r>
       <r>    7.7909    0.0000 </r>
       <r>    7.7950    0.0000 </r>
       <r>    7.7950    0.0000 </r>
       <r>    7.8925    0.0000 </r>
       <r>    7.8925    0.0000 </r>
       <r>   10.8133    0.0000 </r>
       <r>   10.8136    0.0000 </r>
      </set>
      <set comment="kpoint 19">
       <r>  -52.0232    1.0000 </r>
       <r>  -52.0232    1.0000 </r>
       <r>  -28.6035    1.0000 </r>
       <r>  -28.6035    1.0000 </r>
       <r>  -28.2351    1.0000 </r>
       <r>  -28.2351    1.0000 </r>
       <r>  -28.2200    1.0000 </r>
       <r>  -28.2200    1.0000 </r>
       <r>  -11.9680    1.0000 </r>
       <r>  -11.9680    1.0000 </r>
       <r>  -11.8971    1.0000 </r>
       <r>  -11.8971    1.0000 </r>
       <r>    0.3651    1.0000 </r>
       <r>    0.3651    1.0000 </r>
       <r>    1.1410    1.0000 </r>
       <r>    1.1410    1.0000 </r>
       <r>    1.2314    1.0000 </r>
       <r>    1.2314    1.0000 </r>
       <r>    2.1006    1.0000 </r>
       <r>    2.1006    1.0000 </r>
       <r>    2.4864    1.0000 </r>
       <r>    2.4864    1.0000 </r>
       <r>    3.4279    1.0000 </r>
       <r>    3.4279    1.0000 </r>
       <r>    7.8083    0.0000 </r>
       <r>    7.8083    0.0000 </r>
       <r>    8.0028    0.0000 </r>
       <r>    8.0028    0.0000 </r>
       <r>    8.5151    0.0000 </r>
       <r>    8.5151    0.0000 </r>
       <r>   10.3476    0.0000 </r>
       <r>   10.3476    0.0000 </r>
      </set>
      <set comment="kpoint 20">
       <r>  -52.0232    1.0000 </r>
       <r>  -52.0232    1.0000 </r>
       <r>  -28.6092    1.0000 </r>
       <r>  -28.6092    1.0000 </r>
       <r>  -28.2301    1.0000 </r>
       <r>  -28.2301    1.0000 </r>
       <r>  -28.2196    1.0000 </r>
       <r>  -28.2196    1.0000 </r>
       <r>  -12.1807    1.0000 </r>
       <r>  -12.1807    1.0000 </r>
       <r>  -11.6714    1.0000 </r>
       <r>  -11.6714    1.0000 </r>
       <r>    0.0947    1.0000 </r>
       <r>    0.0947    1.0000 </r>
       <r>    0.7777    1.0000 </r>
       <r>    0.7777    1.0000 </r>
       <r>    1.6059    1.0000 </r>
       <r>    1.6059    1.0000 </r>
       <r>    2.2192    1.0000 </r>
       <r>    2.2192    1.0000 </r>
       <r>    3.0690    1.0000 </r>
       <r>    3.0690    1.0000 </r>
       <r>    3.2355    1.0000 </r>
       <r>    3.2355    1.0000 </r>
       <r>    7.2952    0.0000 </r>
       <r>    7.2952    0.0000 </r>
       <r>    8.0159    0.0000 </r>
       <r>    8.0159    0.0000 </r>
       <r>    8.6657    0.0000 </r>
       <r>    8.6657    0.0000 </r>
       <r>    9.9640    0.0000 </r>
       <r>    9.9640    0.0000 </r>
      </set>
      <set comment="kpoint 21">
       <r>  -52.0231    1.0000 </r>
       <r>  -52.0231    1.0000 </r>
       <r>  -28.6146    1.0000 </r>
       <r>  -28.6146    1.0000 </r>
       <r>  -28.2258    1.0000 </r>
       <r>  -28.2258    1.0000 </r>
       <r>  -28.2184    1.0000 </r>
       <r>  -28.2184    1.0000 </r>
       <r>  -12.2782    1.0000 </r>
       <r>  -12.2782    1.0000 </r>
       <r>  -11.5600    1.0000 </r>
       <r>  -11.5600    1.0000 </r>
       <r>   -0.2007    1.0000 </r>
       <r>   -0.2007    1.0000 </r>
       <r>    0.8740    1.0000 </r>
       <r>    0.8740    1.0000 </r>
       <r>    1.5843    1.0000 </r>
       <r>    1.5843    1.0000 </r>
       <r>    2.4728    1.0000 </r>
       <r>    2.4728    1.0000 </r>
       <r>    2.8103    1.0000 </r>
       <r>    2.8103    1.0000 </r>
       <r>    3.8178    1.0000 </r>
       <r>    3.8178    1.0000 </r>
       <r>    6.7516    0.0000 </r>
       <r>    6.7516    0.0000 </r>
       <r>    8.0271    0.0000 </r>
       <r>    8.0271    0.0000 </r>
       <r>    8.7537    0.0000 </r>
       <r>    8.7537    0.0000 </r>
       <r>    9.7770    0.0000 </r>
       <r>    9.7770    0.0000 </r>
      </set>
      <set comment="kpoint 22">
       <r>  -52.0231    1.0000 </r>
       <r>  -52.0231    1.0000 </r>
       <r>  -28.6134    1.0000 </r>
       <r>  -28.6044    1.0000 </r>
       <r>  -28.2362    1.0000 </r>
       <r>  -28.2248    1.0000 </r>
       <r>  -28.2208    1.0000 </r>
       <r>  -28.2194    1.0000 </r>
       <r>  -12.2813    1.0000 </r>
       <r>  -12.0149    1.0000 </r>
       <r>  -11.8389    1.0000 </r>
       <r>  -11.5566    1.0000 </r>
       <r>   -0.1833    1.0000 </r>
       <r>    0.4616    1.0000 </r>
       <r>    0.5761    1.0000 </r>
       <r>    0.6927    1.0000 </r>
       <r>    0.8775    1.0000 </r>
       <r>    2.1059    1.0000 </r>
       <r>    2.2325    1.0000 </r>
       <r>    2.2372    1.0000 </r>
       <r>    3.0075    1.0000 </r>
       <r>    3.2949    1.0000 </r>
       <r>    3.4704    1.0000 </r>
       <r>    3.6624    1.0000 </r>
       <r>    6.9461    0.0000 </r>
       <r>    7.6148    0.0000 </r>
       <r>    8.0142    0.0000 </r>
       <r>    8.0236    0.0000 </r>
       <r>    8.1304    0.0000 </r>
       <r>    8.8478    0.0000 </r>
       <r>    9.6899    0.0000 </r>
       <r>   10.6986    0.0000 </r>
      </set>
      <set comment="kpoint 23">
       <r>  -52.0231    1.0000 </r>
       <r>  -52.0231    1.0000 </r>
       <r>  -28.6088    1.0000 </r>
       <r>  -28.6088    1.0000 </r>
       <r>  -28.2311    1.0000 </r>
       <r>  -28.2311    1.0000 </r>
       <r>  -28.2203    1.0000 </r>
       <r>  -28.2203    1.0000 </r>
       <r>  -12.1924    1.0000 </r>
       <r>  -12.1924    1.0000 </r>
       <r>  -11.6476    1.0000 </r>
       <r>  -11.6476    1.0000 </r>
       <r>   -0.1151    1.0000 </r>
       <r>   -0.1151    1.0000 </r>
       <r>    0.6887    1.0000 </r>
       <r>    0.6887    1.0000 </r>
       <r>    1.3949    1.0000 </r>
       <r>    1.3949    1.0000 </r>
       <r>    2.2112    1.0000 </r>
       <r>    2.2112    1.0000 </r>
       <r>    3.3277    1.0000 </r>
       <r>    3.3277    1.0000 </r>
       <r>    3.9743    1.0000 </r>
       <r>    3.9743    1.0000 </r>
       <r>    7.0126    0.0000 </r>
       <r>    7.0126    0.0000 </r>
       <r>    8.0369    0.0000 </r>
       <r>    8.0369    0.0000 </r>
       <r>    8.4930    0.0000 </r>
       <r>    8.4930    0.0000 </r>
       <r>   10.0549    0.0000 </r>
       <r>   10.0549    0.0000 </r>
      </set>
      <set comment="kpoint 24">
       <r>  -52.0231    1.0000 </r>
       <r>  -52.0231    1.0000 </r>
       <r>  -28.6027    1.0000 </r>
       <r>  -28.6027    1.0000 </r>
       <r>  -28.2374    1.0000 </r>
       <r>  -28.2374    1.0000 </r>
       <r>  -28.2216    1.0000 </r>
       <r>  -28.2216    1.0000 </r>
       <r>  -12.0606    1.0000 </r>
       <r>  -12.0606    1.0000 </r>
       <r>  -11.7814    1.0000 </r>
       <r>  -11.7814    1.0000 </r>
       <r>    0.1289    1.0000 </r>
       <r>    0.1289    1.0000 </r>
       <r>    0.2846    1.0000 </r>
       <r>    0.2846    1.0000 </r>
       <r>    1.3200    1.0000 </r>
       <r>    1.3200    1.0000 </r>
       <r>    2.1297    1.0000 </r>
       <r>    2.1297    1.0000 </r>
       <r>    3.5695    1.0000 </r>
       <r>    3.5695    1.0000 </r>
       <r>    4.1796    1.0000 </r>
       <r>    4.1796    1.0000 </r>
       <r>    7.4339    0.0000 </r>
       <r>    7.4339    0.0000 </r>
       <r>    8.0475    0.0000 </r>
       <r>    8.0475    0.0000 </r>
       <r>    8.0600    0.0000 </r>
       <r>    8.0600    0.0000 </r>
       <r>   10.7558    0.0000 </r>
       <r>   10.7558    0.0000 </r>
      </set>
     </set>
    </set>
   </array>
  </eigenvalues>
  <separator name="orbital magnetization" >
   <v name="MAGDIPOLOUT">      0.00000000      0.00000000      0.00000000</v>
  </separator>
  <dos>
   <i name="efermi">      5.14492604 </i>
   <total>
    <array>
     <dimension dim="1">gridpoints</dimension>
     <dimension dim="2">spin</dimension>
     <field>energy</field>
     <field>total</field>
     <field>integrated</field>
     <set>
      <set comment="spin 1">
       <r>   -55.2486     0.0000     0.0000 </r>
       <r>   -55.0156     0.0000     0.0000 </r>
       <r>   -54.7827     0.0000     0.0000 </r>
       <r>   -54.5497     0.0000     0.0000 </r>
       <r>   -54.3168     0.0000     0.0000 </r>
       <r>   -54.0838     0.0000     0.0000 </r>
       <r>   -53.8509     0.0000     0.0000 </r>
       <r>   -53.6179     0.0000     0.0000 </r>
       <r>   -53.3849     0.0000     0.0000 </r>
       <r>   -53.1520     0.0000     0.0000 </r>
       <r>   -52.9190     0.0000     0.0000 </r>
       <r>   -52.6861     0.0000     0.0000 </r>
       <r>   -52.4531     0.0000     0.0000 </r>
       <r>   -52.2202     0.0000     0.0000 </r>
       <r>   -51.9872    15.9440     3.7142 </r>
       <r>   -51.7543     1.2267     4.0000 </r>
       <r>   -51.5213     0.0000     4.0000 </r>
       <r>   -51.2884     0.0000     4.0000 </r>
       <r>   -51.0554     0.0000     4.0000 </r>
       <r>   -50.8224     0.0000     4.0000 </r>
       <r>   -50.5895     0.0000     4.0000 </r>
       <r>   -50.3565     0.0000     4.0000 </r>
       <r>   -50.1236     0.0000     4.0000 </r>
       <r>   -49.8906     0.0000     4.0000 </r>
       <r>   -49.6577     0.0000     4.0000 </r>
       <r>   -49.4247     0.0000     4.0000 </r>
       <r>   -49.1918     0.0000     4.0000 </r>
       <r>   -48.9588     0.0000     4.0000 </r>
       <r>   -48.7258     0.0000     4.0000 </r>
       <r>   -48.4929     0.0000     4.0000 </r>
       <r>   -48.2599     0.0000     4.0000 </r>
       <r>   -48.0270     0.0000     4.0000 </r>
       <r>   -47.7940     0.0000     4.0000 </r>
       <r>   -47.5611     0.0000     4.0000 </r>
       <r>   -47.3281     0.0000     4.0000 </r>
       <r>   -47.0952     0.0000     4.0000 </r>
       <r>   -46.8622     0.0000     4.0000 </r>
       <r>   -46.6293     0.0000     4.0000 </r>
       <r>   -46.3963     0.0000     4.0000 </r>
       <r>   -46.1633     0.0000     4.0000 </r>
       <r>   -45.9304     0.0000     4.0000 </r>
       <r>   -45.6974     0.0000     4.0000 </r>
       <r>   -45.4645     0.0000     4.0000 </r>
       <r>   -45.2315     0.0000     4.0000 </r>
       <r>   -44.9986     0.0000     4.0000 </r>
       <r>   -44.7656     0.0000     4.0000 </r>
       <r>   -44.5327     0.0000     4.0000 </r>
       <r>   -44.2997     0.0000     4.0000 </r>
       <r>   -44.0668     0.0000     4.0000 </r>
       <r>   -43.8338     0.0000     4.0000 </r>
       <r>   -43.6008     0.0000     4.0000 </r>
       <r>   -43.3679     0.0000     4.0000 </r>
       <r>   -43.1349     0.0000     4.0000 </r>
       <r>   -42.9020     0.0000     4.0000 </r>
       <r>   -42.6690     0.0000     4.0000 </r>
       <r>   -42.4361     0.0000     4.0000 </r>
       <r>   -42.2031     0.0000     4.0000 </r>
       <r>   -41.9702     0.0000     4.0000 </r>
       <r>   -41.7372     0.0000     4.0000 </r>
       <r>   -41.5043     0.0000     4.0000 </r>
       <r>   -41.2713     0.0000     4.0000 </r>
       <r>   -41.0383     0.0000     4.0000 </r>
       <r>   -40.8054     0.0000     4.0000 </r>
       <r>   -40.5724     0.0000     4.0000 </r>
       <r>   -40.3395     0.0000     4.0000 </r>
       <r>   -40.1065     0.0000     4.0000 </r>
       <r>   -39.8736     0.0000     4.0000 </r>
       <r>   -39.6406     0.0000     4.0000 </r>
       <r>   -39.4077     0.0000     4.0000 </r>
       <r>   -39.1747     0.0000     4.0000 </r>
       <r>   -38.9418     0.0000     4.0000 </r>
       <r>   -38.7088     0.0000     4.0000 </r>
       <r>   -38.4758     0.0000     4.0000 </r>
       <r>   -38.2429     0.0000     4.0000 </r>
       <r>   -38.0099     0.0000     4.0000 </r>
       <r>   -37.7770     0.0000     4.0000 </r>
       <r>   -37.5440     0.0000     4.0000 </r>
       <r>   -37.3111     0.0000     4.0000 </r>
       <r>   -37.0781     0.0000     4.0000 </r>
       <r>   -36.8452     0.0000     4.0000 </r>
       <r>   -36.6122     0.0000     4.0000 </r>
       <r>   -36.3792     0.0000     4.0000 </r>
       <r>   -36.1463     0.0000     4.0000 </r>
       <r>   -35.9133     0.0000     4.0000 </r>
       <r>   -35.6804     0.0000     4.0000 </r>
       <r>   -35.4474     0.0000     4.0000 </r>
       <r>   -35.2145     0.0000     4.0000 </r>
       <r>   -34.9815     0.0000     4.0000 </r>
       <r>   -34.7486     0.0000     4.0000 </r>
       <r>   -34.5156     0.0000     4.0000 </r>
       <r>   -34.2827     0.0000     4.0000 </r>
       <r>   -34.0497     0.0000     4.0000 </r>
       <r>   -33.8167     0.0000     4.0000 </r>
       <r>   -33.5838     0.0000     4.0000 </r>
       <r>   -33.3508     0.0000     4.0000 </r>
       <r>   -33.1179     0.0000     4.0000 </r>
       <r>   -32.8849     0.0000     4.0000 </r>
       <r>   -32.6520     0.0000     4.0000 </r>
       <r>   -32.4190     0.0000     4.0000 </r>
       <r>   -32.1861     0.0000     4.0000 </r>
       <r>   -31.9531     0.0000     4.0000 </r>
       <r>   -31.7202     0.0000     4.0000 </r>
       <r>   -31.4872     0.0000     4.0000 </r>
       <r>   -31.2542     0.0000     4.0000 </r>
       <r>   -31.0213     0.0000     4.0000 </r>
       <r>   -30.7883     0.0000     4.0000 </r>
       <r>   -30.5554     0.0000     4.0000 </r>
       <r>   -30.3224     0.0000     4.0000 </r>
       <r>   -30.0895     0.0000     4.0000 </r>
       <r>   -29.8565     0.0000     4.0000 </r>
       <r>   -29.6236     0.0000     4.0000 </r>
       <r>   -29.3906     0.0000     4.0000 </r>
       <r>   -29.1577     0.0000     4.0000 </r>
       <r>   -28.9247     0.0000     4.0000 </r>
       <r>   -28.6917     0.0283     4.0066 </r>
       <r>   -28.4588     7.8982     5.8465 </r>
       <r>   -28.2258    28.7578    12.5458 </r>
       <r>   -27.9929    14.8279    16.0000 </r>
       <r>   -27.7599     0.0000    16.0000 </r>
       <r>   -27.5270     0.0000    16.0000 </r>
       <r>   -27.2940     0.0000    16.0000 </r>
       <r>   -27.0611     0.0000    16.0000 </r>
       <r>   -26.8281     0.0000    16.0000 </r>
       <r>   -26.5952     0.0000    16.0000 </r>
       <r>   -26.3622     0.0000    16.0000 </r>
       <r>   -26.1292     0.0000    16.0000 </r>
       <r>   -25.8963     0.0000    16.0000 </r>
       <r>   -25.6633     0.0000    16.0000 </r>
       <r>   -25.4304     0.0000    16.0000 </r>
       <r>   -25.1974     0.0000    16.0000 </r>
       <r>   -24.9645     0.0000    16.0000 </r>
       <r>   -24.7315     0.0000    16.0000 </r>
       <r>   -24.4986     0.0000    16.0000 </r>
       <r>   -24.2656     0.0000    16.0000 </r>
       <r>   -24.0327     0.0000    16.0000 </r>
       <r>   -23.7997     0.0000    16.0000 </r>
       <r>   -23.5667     0.0000    16.0000 </r>
       <r>   -23.3338     0.0000    16.0000 </r>
       <r>   -23.1008     0.0000    16.0000 </r>
       <r>   -22.8679     0.0000    16.0000 </r>
       <r>   -22.6349     0.0000    16.0000 </r>
       <r>   -22.4020     0.0000    16.0000 </r>
       <r>   -22.1690     0.0000    16.0000 </r>
       <r>   -21.9361     0.0000    16.0000 </r>
       <r>   -21.7031     0.0000    16.0000 </r>
       <r>   -21.4701     0.0000    16.0000 </r>
       <r>   -21.2372     0.0000    16.0000 </r>
       <r>   -21.0042     0.0000    16.0000 </r>
       <r>   -20.7713     0.0000    16.0000 </r>
       <r>   -20.5383     0.0000    16.0000 </r>
       <r>   -20.3054     0.0000    16.0000 </r>
       <r>   -20.0724     0.0000    16.0000 </r>
       <r>   -19.8395     0.0000    16.0000 </r>
       <r>   -19.6065     0.0000    16.0000 </r>
       <r>   -19.3736     0.0000    16.0000 </r>
       <r>   -19.1406     0.0000    16.0000 </r>
       <r>   -18.9076     0.0000    16.0000 </r>
       <r>   -18.6747     0.0000    16.0000 </r>
       <r>   -18.4417     0.0000    16.0000 </r>
       <r>   -18.2088     0.0000    16.0000 </r>
       <r>   -17.9758     0.0000    16.0000 </r>
       <r>   -17.7429     0.0000    16.0000 </r>
       <r>   -17.5099     0.0000    16.0000 </r>
       <r>   -17.2770     0.0000    16.0000 </r>
       <r>   -17.0440     0.0000    16.0000 </r>
       <r>   -16.8111     0.0000    16.0000 </r>
       <r>   -16.5781     0.0000    16.0000 </r>
       <r>   -16.3451     0.0000    16.0000 </r>
       <r>   -16.1122     0.0000    16.0000 </r>
       <r>   -15.8792     0.0000    16.0000 </r>
       <r>   -15.6463     0.0000    16.0000 </r>
       <r>   -15.4133     0.0000    16.0000 </r>
       <r>   -15.1804     0.0000    16.0000 </r>
       <r>   -14.9474     0.0000    16.0000 </r>
       <r>   -14.7145     0.0000    16.0000 </r>
       <r>   -14.4815     0.0000    16.0000 </r>
       <r>   -14.2486     0.0000    16.0000 </r>
       <r>   -14.0156     0.0000    16.0000 </r>
       <r>   -13.7826     0.0000    16.0000 </r>
       <r>   -13.5497     0.0000    16.0000 </r>
       <r>   -13.3167     0.0779    16.0181 </r>
       <r>   -13.0838     0.4354    16.1196 </r>
       <r>   -12.8508     1.0927    16.3741 </r>
       <r>   -12.6179     1.7909    16.7913 </r>
       <r>   -12.3849     3.0922    17.5117 </r>
       <r>   -12.1520     5.5472    18.8039 </r>
       <r>   -11.9190     5.4080    20.0637 </r>
       <r>   -11.6861    10.6781    22.5512 </r>
       <r>   -11.4531     6.1140    23.9755 </r>
       <r>   -11.2201     0.1051    24.0000 </r>
       <r>   -10.9872     0.0000    24.0000 </r>
       <r>   -10.7542     0.0000    24.0000 </r>
       <r>   -10.5213     0.0000    24.0000 </r>
       <r>   -10.2883     0.0000    24.0000 </r>
       <r>   -10.0554     0.0000    24.0000 </r>
       <r>    -9.8224     0.0000    24.0000 </r>
       <r>    -9.5895     0.0000    24.0000 </r>
       <r>    -9.3565     0.0000    24.0000 </r>
       <r>    -9.1235     0.0000    24.0000 </r>
       <r>    -8.8906     0.0000    24.0000 </r>
       <r>    -8.6576     0.0000    24.0000 </r>
       <r>    -8.4247     0.0000    24.0000 </r>
       <r>    -8.1917     0.0000    24.0000 </r>
       <r>    -7.9588     0.0000    24.0000 </r>
       <r>    -7.7258     0.0000    24.0000 </r>
       <r>    -7.4929     0.0000    24.0000 </r>
       <r>    -7.2599     0.0000    24.0000 </r>
       <r>    -7.0270     0.0000    24.0000 </r>
       <r>    -6.7940     0.0000    24.0000 </r>
       <r>    -6.5610     0.0000    24.0000 </r>
       <r>    -6.3281     0.0000    24.0000 </r>
       <r>    -6.0951     0.0000    24.0000 </r>
       <r>    -5.8622     0.0000    24.0000 </r>
       <r>    -5.6292     0.0000    24.0000 </r>
       <r>    -5.3963     0.0000    24.0000 </r>
       <r>    -5.1633     0.0000    24.0000 </r>
       <r>    -4.9304     0.0000    24.0000 </r>
       <r>    -4.6974     0.0000    24.0000 </r>
       <r>    -4.4645     0.0000    24.0000 </r>
       <r>    -4.2315     0.0000    24.0000 </r>
       <r>    -3.9985     0.0000    24.0000 </r>
       <r>    -3.7656     0.0000    24.0000 </r>
       <r>    -3.5326     0.0000    24.0000 </r>
       <r>    -3.2997     0.0000    24.0000 </r>
       <r>    -3.0667     0.0000    24.0000 </r>
       <r>    -2.8338     0.0000    24.0000 </r>
       <r>    -2.6008     0.0000    24.0000 </r>
       <r>    -2.3679     0.0000    24.0000 </r>
       <r>    -2.1349     0.0000    24.0000 </r>
       <r>    -1.9020     0.0000    24.0000 </r>
       <r>    -1.6690     0.0000    24.0000 </r>
       <r>    -1.4360     0.0000    24.0000 </r>
       <r>    -1.2031     0.0000    24.0000 </r>
       <r>    -0.9701     0.0063    24.0015 </r>
       <r>    -0.7372     0.1711    24.0413 </r>
       <r>    -0.5042     0.9571    24.2643 </r>
       <r>    -0.2713     2.1440    24.7637 </r>
       <r>    -0.0383     4.2108    25.7447 </r>
       <r>     0.1946     3.9019    26.6536 </r>
       <r>     0.4276     8.7788    28.6987 </r>
       <r>     0.6605     5.6132    30.0063 </r>
       <r>     0.8935     6.6344    31.5518 </r>
       <r>     1.1265     4.1865    32.5271 </r>
       <r>     1.3594     3.2286    33.2792 </r>
       <r>     1.5924     4.9752    34.4382 </r>
       <r>     1.8253     3.1164    35.1642 </r>
       <r>     2.0583     3.8962    36.0718 </r>
       <r>     2.2912     6.2333    37.5239 </r>
       <r>     2.5242     3.6587    38.3762 </r>
       <r>     2.7571     7.0217    40.0120 </r>
       <r>     2.9901     5.9665    41.4019 </r>
       <r>     3.2230     5.0217    42.5717 </r>
       <r>     3.4560     5.3007    43.8065 </r>
       <r>     3.6890     3.7691    44.6846 </r>
       <r>     3.9219     7.4634    46.4232 </r>
       <r>     4.1549     3.5253    47.2445 </r>
       <r>     4.3878     1.4380    47.5794 </r>
       <r>     4.6208     1.3585    47.8959 </r>
       <r>     4.8537     0.4014    47.9894 </r>
       <r>     5.0867     0.0455    48.0000 </r>
       <r>     5.3196     0.0000    48.0000 </r>
       <r>     5.5526     0.0000    48.0000 </r>
       <r>     5.7856     0.0000    48.0000 </r>
       <r>     6.0185     0.0000    48.0000 </r>
       <r>     6.2515     0.0000    48.0000 </r>
       <r>     6.4844     0.0000    48.0000 </r>
       <r>     6.7174     0.1492    48.0348 </r>
       <r>     6.9503     1.7850    48.4506 </r>
       <r>     7.1833     4.1846    49.4254 </r>
       <r>     7.4162     6.6418    50.9726 </r>
       <r>     7.6492     6.5570    52.5001 </r>
       <r>     7.8821     6.8540    54.0968 </r>
       <r>     8.1151    10.8391    56.6218 </r>
       <r>     8.3481     1.9886    57.0851 </r>
       <r>     8.5810     6.2473    58.5404 </r>
       <r>     8.8140     4.1645    59.5105 </r>
       <r>     9.0469     1.4890    59.8574 </r>
       <r>     9.2799     0.6055    59.9984 </r>
       <r>     9.5128     0.0967    60.0210 </r>
       <r>     9.7458     1.2690    60.3166 </r>
       <r>     9.9787     2.6682    60.9382 </r>
       <r>    10.2117     4.9127    62.0826 </r>
       <r>    10.4446     0.9854    62.3121 </r>
       <r>    10.6776     2.6534    62.9303 </r>
       <r>    10.9106     3.3280    63.7055 </r>
       <r>    11.1435     0.7450    63.8791 </r>
       <r>    11.3765     0.4212    63.9772 </r>
       <r>    11.6094     0.0979    64.0000 </r>
       <r>    11.8424     0.0000    64.0000 </r>
       <r>    12.0753     0.0000    64.0000 </r>
       <r>    12.3083     0.0000    64.0000 </r>
       <r>    12.5412     0.0000    64.0000 </r>
       <r>    12.7742     0.0000    64.0000 </r>
       <r>    13.0071     0.0000    64.0000 </r>
       <r>    13.2401     0.0000    64.0000 </r>
       <r>    13.4731     0.0000    64.0000 </r>
       <r>    13.7060     0.0000    64.0000 </r>
       <r>    13.9390     0.0000    64.0000 </r>
       <r>    14.1719     0.0000    64.0000 </r>
       <r>    14.4049     0.0000    64.0000 </r>
       <r>    14.6378     0.0000    64.0000 </r>
      </set>
     </set>
    </array>
   </total>
  </dos>
 </calculation>
 <structure name="finalpos" >
  <crystal>
   <varray name="basis" >
    <v>       4.59370000       0.00000000       0.00000000 </v>
    <v>       0.00000000       4.59370000       0.00000000 </v>
    <v>       0.00000000       0.00000000       2.95870000 </v>
   </varray>
   <i name="volume">     62.43472318 </i>
   <varray name="rec_basis" >
    <v>       0.21768944       0.00000000       0.00000000 </v>
    <v>       0.00000000       0.21768944       0.00000000 </v>
    <v>       0.00000000       0.00000000       0.33798628 </v>
   </varray>
  </crystal>
  <varray name="positions" >
   <v>       0.00000000       0.00000000       0.00000000 </v>
   <v>       0.50000000       0.50000000       0.50000000 </v>
   <v>       0.30478000       0.30478000       0.00000000 </v>
   <v>       0.69522000       0.69522000       0.00000000 </v>
   <v>       0.80478000       0.19522000       0.50000000 </v>
   <v>       0.19522000       0.80478000       0.50000000 </v>
  </varray>
 </structure>
</modeling>
