Si-HSE06-k333-vasp                      
   1.00000000000000     
     0.0000000000000000    2.7155000000000000    2.7155000000000000
     2.7155000000000000    0.0000000000000000    2.7155000000000000
     2.7155000000000000    2.7155000000000000    0.0000000000000000
   Si
     2
Direct
  0.0000000000000000  0.0000000000000000  0.0000000000000000
  0.2500000000000000  0.2500000000000000  0.2500000000000000
 
  0.00000000E+00  0.00000000E+00  0.00000000E+00
  0.00000000E+00  0.00000000E+00  0.00000000E+00
