    2    2    1    1
  0.2002393E+02  0.3840297E-09  0.3840297E-09  0.3840297E-09  0.5000000E-15
  1.000000000000000E-004
  CAR 
 Si-HSE06-k333-vasp  (HSE06)             
      8      4      8
 
  0.0000000E+00  0.0000000E+00  0.0000000E+00  0.3703704E-01
    1       -7.736612   1.000000
    2        5.471496   1.000000
    3        5.471496   1.000000
    4        5.471496   1.000000
    5        8.900633   0.000000
    6        8.900633   0.000000
    7        8.900633   0.000000
    8        9.979541   0.000000
 
  0.3333333E+00  0.0000000E+00  0.0000000E+00  0.2962963E+00
    1       -6.208630   1.000000
    2       -0.320313   1.000000
    3        4.399963   1.000000
    4        4.399963   1.000000
    5        8.113151   0.000000
    6        9.887780   0.000000
    7        9.887781   0.000000
    8       14.429565   0.000000
 
  0.3333333E+00  0.3333333E+00  0.0000000E+00  0.2222222E+00
    1       -5.620348   1.000000
    2        0.043880   1.000000
    3        2.850780   1.000000
    4        2.850780   1.000000
    5        6.917494   0.000000
    6        8.252538   0.000000
    7       13.945358   0.000000
    8       13.945359   0.000000
 
 -0.3333333E+00  0.3333333E+00  0.0000000E+00  0.4444444E+00
    1       -4.104103   1.000000
    2       -1.941805   1.000000
    3        0.736700   1.000000
    4        3.188943   1.000000
    5        7.816368   0.000000
    6       12.246869   0.000000
    7       13.116063   0.000000
    8       13.736833   0.000000
