       N       E                     dE             d eps       ncg     rms          ort
SDA:   1    -0.119734009697E+02   -0.11973E+02   -0.26708E-01    32   0.668E-01 0.000E+00
DMP:   2    -0.119950131722E+02   -0.21612E-01   -0.17141E-01    32   0.270E-01 0.414E-01
DMP:   3    -0.120076114514E+02   -0.12598E-01   -0.62858E-02    32   0.799E-02 0.202E-01
DMP:   4    -0.120121742850E+02   -0.45628E-02   -0.22908E-02    32   0.300E-02 0.713E-02
DMP:   5    -0.120138899309E+02   -0.17156E-02   -0.93402E-03    32   0.125E-02 0.285E-02
DMP:   6    -0.120146055294E+02   -0.71560E-03   -0.40095E-03    32   0.532E-03 0.123E-02
DMP:   7    -0.120149189827E+02   -0.31345E-03   -0.18099E-03    32   0.240E-03 0.557E-03
DMP:   8    -0.120150631334E+02   -0.14415E-03   -0.84206E-04    32   0.109E-03 0.264E-03
DMP:   9    -0.120151304340E+02   -0.67301E-04   -0.38471E-04    32   0.483E-04 0.125E-03
DMP:  10    -0.120151608297E+02   -0.30396E-04   -0.16713E-04    32   0.200E-04 0.571E-04
DMP:  11    -0.120151742090E+02   -0.13379E-04   -0.76397E-05    32   0.920E-05 0.259E-04
DMP:  12    -0.120151805471E+02   -0.63381E-05   -0.39020E-05    32   0.478E-05 0.130E-04
DMP:  13    -0.120151838852E+02   -0.33381E-05   -0.21451E-05    32   0.263E-05 0.716E-05
DMP:  14    -0.120151857748E+02   -0.18896E-05   -0.12683E-05    32   0.158E-05 0.417E-05
DMP:  15    -0.120151869265E+02   -0.11518E-05   -0.81975E-06    32   0.105E-05 0.262E-05
DMP:  16    -0.120151876875E+02   -0.76094E-06   -0.59193E-06    32   0.801E-06 0.178E-05
   1 F= -.12015188E+02 E0= -.12015188E+02  d E =-.524942E-12
