 vasp.5.4.4.18Apr17-6-g9f103f2a35 (build Mar 10 2026 18:13:51) complex          
  
 executed on             LinuxIFC date 2026.06.25  14:53:08
 running on   32 total cores
 distrk:  each k-point on   32 cores,    1 groups
 distr:  one band on NCORES_PER_BAND=   4 cores,    8 groups


--------------------------------------------------------------------------------------------------------


 INCAR:
 POTCAR:    PAW_PBE Si 05Jan2001                  
 POTCAR:    PAW_PBE Si 05Jan2001                  
   SHA256 =  79d9987ad8750f624c4d6acb2a16d13abf6a777132adc04dc6c8399be72b42bb Si
   COPYR  = (c) Copyright 05Jan2001 Georg Kresse                                
   COPYR  = This file is part of the software VASP. Any use, copying, and all ot
   COPYR  = If you do not have a valid VASP license, you may not use, copy or di
   VRHFIN =Si: s2p2                                                             
   LEXCH  = PE                                                                  
   EATOM  =   103.0669 eV,    7.5752 Ry                                         
                                                                                
   TITEL  = PAW_PBE Si 05Jan2001                                                
   LULTRA =        F    use ultrasoft PP ?                                      
   IUNSCR =        1    unscreen: 0-lin 1-nonlin 2-no                           
   RPACOR =    1.500    partial core radius                                     
   POMASS =   28.085; ZVAL   =    4.000    mass and valenz                      
   RCORE  =    1.900    outmost cutoff radius                                   
   RWIGS  =    2.480; RWIGS  =    1.312    wigner-seitz radius (au A)           
   ENMAX  =  245.345; ENMIN  =  184.009 eV                                      
   ICORE  =        2    local potential                                         
   LCOR   =        T    correct aug charges                                     
   LPAW   =        T    paw PP                                                  
   EAUG   =  322.069                                                            
   DEXC   =    0.000                                                            
   RMAX   =    1.950    core radius for proj-oper                               
   RAUG   =    1.300    factor for augmentation sphere                          
   RDEP   =    1.993    radius for radial grids                                 
   RDEPT  =    1.837    core radius for aug-charge                              
                                                                                
   Atomic configuration                                                         
    6 entries                                                                   
     n  l   j            E        occ.                                          
     1  0  0.50     -1785.8828   2.0000                                         
     2  0  0.50      -139.4969   2.0000                                         
     2  1  1.50       -95.5546   6.0000                                         
     3  0  0.50       -10.8127   2.0000                                         
     3  1  0.50        -4.0811   2.0000                                         
     3  2  1.50        -4.0817   0.0000                                         
   Description                                                                  
     l       E           TYP  RCUT    TYP  RCUT                                 
     0    -10.8127223     23  1.900                                             
     0     -7.6451159     23  1.900                                             
     1     -4.0811372     23  1.900                                             
     1      2.4879257     23  1.900                                             
     2     -4.0817478      7  1.900                                             
  local pseudopotential read in
  partial core-charges read in
  partial kinetic energy density read in
  atomic valenz-charges read in
  non local Contribution for L=           0  read in
    real space projection operators read in
  non local Contribution for L=           0  read in
    real space projection operators read in
  non local Contribution for L=           1  read in
    real space projection operators read in
  non local Contribution for L=           1  read in
    real space projection operators read in
    PAW grid and wavefunctions read in
 
   number of l-projection  operators is LMAX  =           4
   number of lm-projection operators is LMMAX =           8
 
  PAW_PBE Si 05Jan2001                  :
 energy of atom  1       EATOM= -103.0669
 kinetic energy error for atom=    0.0016 (will be added to EATOM!!)
 
 
 POSCAR: Si-HSE06-k333-vasp                      
  positions in cartesian coordinates
  No initial velocities read in
 exchange correlation table for  LEXCH =        8
   RHO(1)=    0.500       N(1)  =     2000
   RHO(2)=  100.500       N(2)  =     4000
 


--------------------------------------------------------------------------------------------------------


 ion  position               nearest neighbor table
   1  0.000  0.000  0.000-   2 2.35   2 2.35   2 2.35   2 2.35
   2  0.250  0.250  0.250-   1 2.35   1 2.35   1 2.35   1 2.35
 
  LATTYP: Found a face centered cubic cell.
 ALAT       =     5.4310000000
  
  Lattice vectors:
  
 A1 = (   0.0000000000,   2.7155000000,   2.7155000000)
 A2 = (   2.7155000000,   0.0000000000,   2.7155000000)
 A3 = (   2.7155000000,   2.7155000000,   0.0000000000)


Analysis of symmetry for initial positions (statically):
=====================================================================
 Subroutine PRICEL returns:
 Original cell was already a primitive cell.
 

 Routine SETGRP: Setting up the symmetry group for a 
 face centered cubic supercell.


 Subroutine GETGRP returns: Found 48 space group operations
 (whereof 24 operations were pure point group operations)
 out of a pool of 48 trial point group operations.


The static configuration has the point symmetry T_d .
 The point group associated with its full space group is O_h .


Analysis of symmetry for dynamics (positions and initial velocities):
=====================================================================
 Subroutine PRICEL returns:
 Original cell was already a primitive cell.
 

 Routine SETGRP: Setting up the symmetry group for a 
 face centered cubic supercell.


 Subroutine GETGRP returns: Found 48 space group operations
 (whereof 24 operations were pure point group operations)
 out of a pool of 48 trial point group operations.


The dynamic configuration has the point symmetry T_d .
 The point group associated with its full space group is O_h .


 Subroutine INISYM returns: Found 48 space group operations
 (whereof 24 operations are pure point group operations),
 and found     1 'primitive' translations

 
 
 KPOINTS: Gamma-centered 3 3 3                    

Automatic generation of k-mesh.
Space group operators:
 irot       det(A)        alpha          n_x          n_y          n_z        tau_x        tau_y        tau_z
    1     1.000000     0.000001     1.000000     0.000000     0.000000     0.000000     0.000000     0.000000
    2     1.000000   120.000000    -0.577350    -0.577350    -0.577350     0.000000     0.000000     0.000000
    3     1.000000   120.000000     0.577350     0.577350     0.577350     0.000000     0.000000     0.000000
    4    -1.000000    90.000000     0.000000     0.000000    -1.000000     0.000000     0.000000     0.000000
    5    -1.000000   180.000000     0.000000     0.707107     0.707107     0.000000     0.000000     0.000000
    6    -1.000000    90.000000     0.000000     1.000000     0.000000     0.000000     0.000000     0.000000
    7     1.000000   180.000000     0.000000     0.000000     1.000000     0.000000     0.000000     0.000000
    8     1.000000   120.000000    -0.577350     0.577350     0.577350     0.000000     0.000000     0.000000
    9     1.000000   120.000000    -0.577350     0.577350    -0.577350     0.000000     0.000000     0.000000
   10    -1.000000    90.000000     0.000000     0.000000     1.000000     0.000000     0.000000     0.000000
   11    -1.000000    90.000000    -1.000000     0.000000     0.000000     0.000000     0.000000     0.000000
   12    -1.000000   180.000000     0.707107     0.000000     0.707107     0.000000     0.000000     0.000000
   13     1.000000   120.000000     0.577350    -0.577350     0.577350     0.000000     0.000000     0.000000
   14     1.000000   120.000000    -0.577350    -0.577350     0.577350     0.000000     0.000000     0.000000
   15     1.000000   180.000000     1.000000     0.000000     0.000000     0.000000     0.000000     0.000000
   16    -1.000000    90.000000     0.000000    -1.000000     0.000000     0.000000     0.000000     0.000000
   17    -1.000000   180.000000     0.707107     0.707107     0.000000     0.000000     0.000000     0.000000
   18    -1.000000    90.000000     1.000000     0.000000     0.000000     0.000000     0.000000     0.000000
   19     1.000000   120.000000     0.577350    -0.577350    -0.577350     0.000000     0.000000     0.000000
   20     1.000000   180.000000     0.000000     1.000000     0.000000     0.000000     0.000000     0.000000
   21     1.000000   120.000000     0.577350     0.577350    -0.577350     0.000000     0.000000     0.000000
   22    -1.000000   180.000000     0.000000    -0.707107     0.707107     0.000000     0.000000     0.000000
   23    -1.000000   180.000000     0.707107    -0.707107     0.000000     0.000000     0.000000     0.000000
   24    -1.000000   180.000000     0.707107     0.000000    -0.707107     0.000000     0.000000     0.000000
   25    -1.000000     0.000001     1.000000     0.000000     0.000000     0.250000     0.250000     0.250000
   26    -1.000000   120.000000    -0.577350    -0.577350    -0.577350     0.250000     0.250000     0.250000
   27    -1.000000   120.000000     0.577350     0.577350     0.577350     0.250000     0.250000     0.250000
   28     1.000000    90.000000     0.000000     0.000000    -1.000000     0.250000     0.250000     0.250000
   29     1.000000   180.000000     0.000000     0.707107     0.707107     0.250000     0.250000     0.250000
   30     1.000000    90.000000     0.000000     1.000000     0.000000     0.250000     0.250000     0.250000
   31    -1.000000   180.000000     0.000000     0.000000     1.000000     0.250000     0.250000     0.250000
   32    -1.000000   120.000000    -0.577350     0.577350     0.577350     0.250000     0.250000     0.250000
   33    -1.000000   120.000000    -0.577350     0.577350    -0.577350     0.250000     0.250000     0.250000
   34     1.000000    90.000000     0.000000     0.000000     1.000000     0.250000     0.250000     0.250000
   35     1.000000    90.000000    -1.000000     0.000000     0.000000     0.250000     0.250000     0.250000
   36     1.000000   180.000000     0.707107     0.000000     0.707107     0.250000     0.250000     0.250000
   37    -1.000000   120.000000     0.577350    -0.577350     0.577350     0.250000     0.250000     0.250000
   38    -1.000000   120.000000    -0.577350    -0.577350     0.577350     0.250000     0.250000     0.250000
   39    -1.000000   180.000000     1.000000     0.000000     0.000000     0.250000     0.250000     0.250000
   40     1.000000    90.000000     0.000000    -1.000000     0.000000     0.250000     0.250000     0.250000
   41     1.000000   180.000000     0.707107     0.707107     0.000000     0.250000     0.250000     0.250000
   42     1.000000    90.000000     1.000000     0.000000     0.000000     0.250000     0.250000     0.250000
   43    -1.000000   120.000000     0.577350    -0.577350    -0.577350     0.250000     0.250000     0.250000
   44    -1.000000   180.000000     0.000000     1.000000     0.000000     0.250000     0.250000     0.250000
   45    -1.000000   120.000000     0.577350     0.577350    -0.577350     0.250000     0.250000     0.250000
   46     1.000000   180.000000     0.000000    -0.707107     0.707107     0.250000     0.250000     0.250000
   47     1.000000   180.000000     0.707107    -0.707107     0.000000     0.250000     0.250000     0.250000
   48     1.000000   180.000000     0.707107     0.000000    -0.707107     0.250000     0.250000     0.250000
 
 Subroutine IBZKPT returns following result:
 ===========================================
 
 Found      4 irreducible k-points:
 
 Following reciprocal coordinates:
            Coordinates               Weight
  0.000000  0.000000  0.000000      1.000000
  0.333333  0.000000  0.000000      8.000000
  0.333333  0.333333  0.000000      6.000000
 -0.333333  0.333333  0.000000     12.000000
 
 Following cartesian coordinates:
            Coordinates               Weight
  0.000000  0.000000  0.000000      1.000000
 -0.061376  0.061376  0.061376      8.000000
  0.000000  0.000000  0.122752      6.000000
  0.122752 -0.122752  0.000000     12.000000
 
 
 Subroutine IBZKPT_HF returns following result:
 ==============================================
 
 Found     27 k-points in 1st BZ
 the following     27 k-points will be used (e.g. in the exchange kernel)
 Following reciprocal coordinates:   # in IRBZ
  0.000000  0.000000  0.000000    0.03703704   1 t-inv F
  0.333333  0.000000  0.000000    0.03703704   2 t-inv F
  0.333333  0.333333  0.000000    0.03703704   3 t-inv F
 -0.333333  0.333333  0.000000    0.03703704   4 t-inv F
  0.000000  0.333333  0.000000    0.03703704   2 t-inv F
  0.000000  0.000000  0.333333    0.03703704   2 t-inv F
 -0.333333 -0.333333 -0.333333    0.03703704   2 t-inv F
 -0.333333  0.000000  0.000000    0.03703704   2 t-inv F
  0.000000 -0.333333  0.000000    0.03703704   2 t-inv F
  0.000000  0.000000 -0.333333    0.03703704   2 t-inv F
  0.333333  0.333333  0.333333    0.03703704   2 t-inv F
  0.000000  0.333333  0.333333    0.03703704   3 t-inv F
  0.333333  0.000000  0.333333    0.03703704   3 t-inv F
 -0.333333 -0.333333  0.000000    0.03703704   3 t-inv F
 -0.333333  0.000000 -0.333333    0.03703704   3 t-inv F
  0.000000 -0.333333 -0.333333    0.03703704   3 t-inv F
  0.000000 -0.333333  0.333333    0.03703704   4 t-inv F
  0.333333  0.000000 -0.333333    0.03703704   4 t-inv F
 -0.333333 -0.333333 -0.666667    0.03703704   4 t-inv F
  0.333333  0.666667  0.333333    0.03703704   4 t-inv F
  0.333333 -0.333333  0.000000    0.03703704   4 t-inv F
 -0.666667 -0.333333 -0.333333    0.03703704   4 t-inv F
  0.333333  0.333333  0.666667    0.03703704   4 t-inv F
  0.000000  0.333333 -0.333333    0.03703704   4 t-inv F
 -0.333333 -0.666667 -0.333333    0.03703704   4 t-inv F
  0.666667  0.333333  0.333333    0.03703704   4 t-inv F
 -0.333333  0.000000  0.333333    0.03703704   4 t-inv F


--------------------------------------------------------------------------------------------------------




 Dimension of arrays:
   k-points           NKPTS =      4   k-points in BZ     NKDIM =     27   number of bands    NBANDS=      8
   number of dos      NEDOS =    301   number of ions     NIONS =      2
   non local maximal  LDIM  =      4   non local SUM 2l+1 LMDIM =      8
   total plane-waves  NPLWV =  13824
   max r-space proj   IRMAX =      1   max aug-charges    IRDMAX=  11739
   dimension x,y,z NGX =    24 NGY =   24 NGZ =   24
   dimension x,y,z NGXF=    48 NGYF=   48 NGZF=   48
   support grid    NGXF=    48 NGYF=   48 NGZF=   48
   ions per type =               2
   NGX,Y,Z   is equivalent  to a cutoff of  10.39, 10.39, 10.39 a.u.
   NGXF,Y,Z  is equivalent  to a cutoff of  20.78, 20.78, 20.78 a.u.

 SYSTEM =  Si-HSE06-k333-vasp  (HSE06)             
 POSCAR =  Si-HSE06-k333-vasp                      

 Startparameter for this run:
   NWRITE =      2    write-flag & timer
   PREC   = accura    normal or accurate (medium, high low for compatibility)
   ISTART =      1    job   : 0-new  1-cont  2-samecut
   ICHARG =      0    charge: 1-file 2-atom 10-const
   ISPIN  =      1    spin polarized calculation?
   LNONCOLLINEAR =      F non collinear calculations
   LSORBIT =      F    spin-orbit coupling
   INIWAV =      1    electr: 0-lowe 1-rand  2-diag
   LASPH  =      F    aspherical Exc in radial PAW
   METAGGA=      F    non-selfconsistent MetaGGA calc.

 Electronic Relaxation 1
   ENCUT  =  320.0 eV  23.52 Ry    4.85 a.u.   5.60  5.60  5.60*2*pi/ulx,y,z
   ENINI  =  320.0     initial cutoff
   ENAUG  =  322.1 eV  augmentation charge cutoff
   NELM   =    120;   NELMIN=  2; NELMDL=  0     # of ELM steps 
   EDIFF  = 0.1E-05   stopping-criterion for ELM
   LREAL  =      F    real-space projection
   NLSPLINE    = F    spline interpolate recip. space projectors
   LCOMPAT=      F    compatible to vasp.4.4
   GGA_COMPAT  = T    GGA compatible to vasp.4.4-vasp.4.6
   LMAXPAW     = -100 max onsite density
   LMAXMIX     =    2 max onsite mixed and CHGCAR
   VOSKOWN=      0    Vosko Wilk Nusair interpolation
   ROPT   =    0.00000
 Ionic relaxation
   EDIFFG = 0.1E-04   stopping-criterion for IOM
   NSW    =      0    number of steps for IOM
   NBLOCK =      1;   KBLOCK =      1    inner block; outer block 
   IBRION =     -1    ionic relax: 0-MD 1-quasi-New 2-CG
   NFREE  =      0    steps in history (QN), initial steepest desc. (CG)
   ISIF   =      0    stress and relaxation
   IWAVPR =     10    prediction:  0-non 1-charg 2-wave 3-comb
   ISYM   =      3    0-nonsym 1-usesym 2-fastsym
   LCORR  =      T    Harris-Foulkes like correction to forces

   POTIM  = 0.5000    time-step for ionic-motion
   TEIN   =    0.0    initial temperature
   TEBEG  =    0.0;   TEEND  =   0.0 temperature during run
   SMASS  =  -3.00    Nose mass-parameter (am)
   estimated Nose-frequenzy (Omega)   =  0.10E-29 period in steps =****** mass=  -0.337E-27a.u.
   SCALEE = 1.0000    scale energy and forces
   NPACO  =    256;   APACO  = 16.0  distance and # of slots for P.C.
   PSTRESS=    0.0 pullay stress

  Mass of Ions in am
   POMASS =  28.09
  Ionic Valenz
   ZVAL   =   4.00
  Atomic Wigner-Seitz radii
   RWIGS  =  -1.00
  virtual crystal weights 
   VCA    =   1.00
   NELECT =       8.0000    total number of electrons
   NUPDOWN=      -1.0000    fix difference up-down

 DOS related values:
   EMIN   =  10.00;   EMAX   =-10.00  energy-range for DOS
   EFERMI =   0.00
   ISMEAR =     0;   SIGMA  =   0.05  broadening in eV -4-tet -1-fermi 0-gaus

 Electronic relaxation 2 (details)
   IALGO  =     53    algorithm
   LDIAG  =      T    sub-space diagonalisation (order eigenvalues)
   LSUBROT=      F    optimize rotation matrix (better conditioning)
   TURBO    =      0    0=normal 1=particle mesh
   IRESTART =      0    0=no restart 2=restart with 2 vectors
   NREBOOT  =      0    no. of reboots
   NMIN     =      0    reboot dimension
   EREF     =   0.00    reference energy to select bands
   IMIX   =      4    mixing-type and parameters
     AMIX     =   0.40;   BMIX     =  1.00
     AMIX_MAG =   1.60;   BMIX_MAG =  1.00
     AMIN     =   0.10
     WC   =   100.;   INIMIX=   1;  MIXPRE=   1;  MAXMIX= -45

 Intra band minimization:
   WEIMIN = 0.0000     energy-eigenvalue tresh-hold
   EBREAK =  0.31E-07  absolut break condition
   DEPER  =   0.30     relativ break condition  

   TIME   =   0.40     timestep for ELM

  volume/ion in A,a.u.               =      20.02       135.13
  Fermi-wavevector in a.u.,A,eV,Ry     =   0.956999  1.808467 12.460868  0.915848
  Thomas-Fermi vector in A             =   2.085978
 
 Write flags
   LWAVE        =      F    write WAVECAR
   LDOWNSAMPLE  =      F    k-point downsampling of WAVECAR
   LCHARG       =      F    write CHGCAR
   LVTOT        =      F    write LOCPOT, total local potential
   LVHAR        =      F    write LOCPOT, Hartree potential only
   LELF         =      F    write electronic localiz. function (ELF)
   LORBIT       =      0    0 simple, 1 ext, 2 COOP (PROOUT), +10 PAW based schemes


 Dipole corrections
   LMONO  =      F    monopole corrections only (constant potential shift)
   LDIPOL =      F    correct potential (dipole corrections)
   IDIPOL =      0    1-x, 2-y, 3-z, 4-all directions 
   EPSILON=  1.0000000 bulk dielectric constant

 Exchange correlation treatment:
   GGA     =    --    GGA type
   LEXCH   =     8    internal setting for exchange type
   VOSKOWN=      0    Vosko Wilk Nusair interpolation
   EXXOEP  =     0    0=HF, 1=EXX-LHF (local Hartree Fock) 2=EXX OEP
   LHFCALC =     T    Hartree Fock is set to
   LSYMGRAD=     F    symmetrize gradient (conserves proper symmetry)
   PRECFOCK=fast      Normal, Fast or Accurate (Low or Medium for compatibility)
   LRHFCALC=     F    long range Hartree Fock
   LRSCOR  =     F    long range correlation only (use DFT for short range part)
   LTHOMAS =     F    Thomas Fermi screening in HF
   LMODELHF=     F    short range full HF, long range fraction AEXX
   ENCUT4O =  -1.0   cutoff for four orbital integrals eV
   LMAXFOCK=     4    L truncation for augmentation on plane wave grid
   LMAXFOCKAE=  -1    L truncation for all-electron charge restoration on plane wave grid
   NMAXFOCKAE=   1    number of basis functions for all-electron charge restoration
   LFOCKAEDFT=     F  apply the AE augmentation even for DFT
   NKREDX  =     1    reduce k-point grid by
   NKREDY  =     1    reduce k-point grid by
   NKREDZ  =     1    reduce k-point grid by
   SHIFTRED=     F    shift reduced grid of Gamma
   HFKIDENT=     F    idential grid for each k-point
   ODDONLY =     F    use only odd q-grid points
   EVENONLY=     F    use only even q-grid points
   HFALPHA =   -1.0000 decay constant for conv. correction
   MCALPHA =    0.0000 extent of test-charge in conv. correction in multipole expansion
   AEXX    =    0.2500 exact exchange contribution
   HFSCREEN=    0.2000 screening length (either q_TF or 0.3 A-1)
   HFSCREENC=   0.2000 screening length for correlation (either q_TF or 0.3 A-1)
   HFRCUT  =    0.0000 spherical cutoff for potential kernel
   ALDAX   =    0.7500 LDA exchange part
   AGGAX   =    0.7500 GGA exchange part
   ALDAC   =    1.0000 LDA correlation
   AGGAC   =    1.0000 GGA correlation
   ENCUTFOCK=  -1.0 apply spherical cutoff to Coloumb kernel
   NBANDSGWLOW=     1    first orbital included in HF term
   NBLOCK_FOCK=    64    blocking factor in FOCK_ACC
 Linear response parameters
   LEPSILON=     F    determine dielectric tensor
   LRPA    =     F    only Hartree local field effects (RPA)
   LNABLA  =     F    use nabla operator in PAW spheres
   LVEL    =     F    velocity operator in full k-point grid
   LINTERFAST=   F  fast interpolation
   KINTER  =     0    interpolate to denser k-point grid
   CSHIFT  =0.1000    complex shift for real part using Kramers Kronig
   OMEGAMAX=  -1.0    maximum frequency
   DEG_THRESHOLD= 0.2000000E-02 threshold for treating states as degnerate
   RTIME   =   -0.100 relaxation time in fs
  (WPLASMAI=    0.000 imaginary part of plasma frequency in eV, 0.658/RTIME)
   DFIELD  = 0.0000000 0.0000000 0.0000000 field for delta impulse in time
 
 Orbital magnetization related:
   ORBITALMAG=     F  switch on orbital magnetization
   LCHIMAG   =     F  perturbation theory with respect to B field
   DQ        =  0.001000  dq finite difference perturbation B field
   LLRAUG    =     F  two centre corrections for induced B field



--------------------------------------------------------------------------------------------------------


 Static calculation
 charge density and potential will be updated during run
 non-spin polarized calculation
 Conjugate gradient for all bands (Freysoldt, et al. PRB 79, 241103 (2009))
 perform sub-space diagonalisation
    before iterative eigenvector-optimisation
 modified Broyden-mixing scheme, WC =      100.0
 initial mixing is a Kerker type mixing with AMIX =  0.4000 and BMIX =      1.0000
 Hartree-type preconditioning will be used
 using additional bands            4
 reciprocal scheme for non local part
 use partial core corrections
 no Harris-corrections to forces 
 use gradient corrections 
 use of overlap-Matrix (Vanderbilt PP)
 Gauss-broadening in eV      SIGMA  =   0.05


--------------------------------------------------------------------------------------------------------


  energy-cutoff  :      320.00
  volume of cell :       40.05
      direct lattice vectors                 reciprocal lattice vectors
     0.000000000  2.715500000  2.715500000    -0.184128153  0.184128153  0.184128153
     2.715500000  0.000000000  2.715500000     0.184128153 -0.184128153  0.184128153
     2.715500000  2.715500000  0.000000000     0.184128153  0.184128153 -0.184128153

  length of vectors
     3.840296929  3.840296929  3.840296929     0.318919316  0.318919316  0.318919316


 
 old parameters found on file WAVECAR:
  energy-cutoff  :      320.00
  volume of cell :       40.05
      direct lattice vectors                 reciprocal lattice vectors
     0.000000000  2.715500000  2.715500000    -0.184128153  0.184128153  0.184128153
     2.715500000  0.000000000  2.715500000     0.184128153 -0.184128153  0.184128153
     2.715500000  2.715500000  0.000000000     0.184128153  0.184128153 -0.184128153

  length of vectors

 
 k-points in units of 2pi/SCALE and weight: Gamma-centered 3 3 3                    
   0.00000000  0.00000000  0.00000000       0.037
  -0.06137605  0.06137605  0.06137605       0.296
   0.00000000  0.00000000  0.12275210       0.222
   0.12275210 -0.12275210  0.00000000       0.444
 
 k-points in reciprocal lattice and weights: Gamma-centered 3 3 3                    
   0.00000000  0.00000000  0.00000000       0.037
   0.33333333  0.00000000  0.00000000       0.296
   0.33333333  0.33333333  0.00000000       0.222
  -0.33333333  0.33333333  0.00000000       0.444
 
 position of ions in fractional coordinates (direct lattice) 
   0.00000000  0.00000000  0.00000000
   0.25000000  0.25000000  0.25000000
 
 position of ions in cartesian coordinates  (Angst):
   0.00000000  0.00000000  0.00000000
   1.35775000  1.35775000  1.35775000
 


--------------------------------------------------------------------------------------------------------


 k-point  1 :   0.0000 0.0000 0.0000  plane waves:     531
 k-point  2 :   0.3333 0.0000 0.0000  plane waves:     528
 k-point  3 :   0.3333 0.3333 0.0000  plane waves:     512
 k-point  4 :  -0.3333 0.3333 0.0000  plane waves:     528

 maximum and minimum number of plane-waves per node :       136      126

 maximum number of plane-waves:       531
 maximum index in each direction: 
   IXMAX=    5   IYMAX=    5   IZMAX=    5
   IXMIN=   -5   IYMIN=   -5   IZMIN=   -5


 parallel 3D FFT for wavefunctions:
    minimum data exchange during FFTs selected (reduces bandwidth)
 parallel 3D FFT for charge:
    minimum data exchange during FFTs selected (reduces bandwidth)


 FFT grid for exact exchange (Hartree Fock) 
  NGX = 14; NGY = 14; NGZ = 14

 
 Radii for the augmentation spheres in the non-local exchange
 for species   1 augmentation radius   1.335 (default was   0.989)
       energy cutoff for augmentation   1280.0

 real space projection operators:
  total allocation   :         95.41 KBytes
  max/ min on nodes  :         29.88         18.28

 Maximum index for augmentation-charges in exchange          208
  SETUP_FOCK is finished

 total amount of memory used by VASP MPI-rank0    30802. kBytes
=======================================================================

   base      :      30000. kBytes
   nonl-proj :         43. kBytes
   fftplans  :        297. kBytes
   grid      :        367. kBytes
   one-center:          3. kBytes
   HF        :          4. kBytes
   nonlr-proj:         58. kBytes
   wavefun   :         30. kBytes
 
     INWAV:  cpu time    0.0011: real time    0.0012
 Broyden mixing: mesh for mixing (old mesh)
   NGX = 11   NGY = 11   NGZ = 11
  (NGX  = 48   NGY  = 48   NGZ  = 48)
  gives a total of   1331 points

 charge density for first step will be calculated from the start-wavefunctions


--------------------------------------------------------------------------------------------------------


 Maximum index for augmentation-charges          559 (set IRDMAX)


--------------------------------------------------------------------------------------------------------


 initial charge from wavefunction
 First call to EWALD:  gamma=   0.518
 Maximum number of real-space cells 3x 3x 3
 Maximum number of reciprocal cells 3x 3x 3

    FEWALD:  cpu time    0.0004: real time    0.0004


--------------------------------------- Iteration      1(   1)  ---------------------------------------


    POTLOK:  cpu time    0.0099: real time    0.0099
    SETDIJ:  cpu time    0.0179: real time    0.0179
    TRIAL :  cpu time    0.0383: real time    0.0385
    CORREC:  cpu time    0.0000: real time    0.0000
    CHARGE:  cpu time    0.0017: real time    0.0017
    --------------------------------------------
      LOOP:  cpu time    0.0680: real time    0.0689

 eigenvalue-minimisations  :     0
 total energy-change (2. order) :-0.1197340E+02  (-0.2670758E-01)
 number of electron       7.9999999 magnetization 
 augmentation part       -0.4372697 magnetization 

 Free energy of the ion-electron system (eV)
  ---------------------------------------------------
  alpha Z        PSCENC =         3.36228930
  Ewald energy   TEWEN  =      -228.52143995
  -Hartree energ DENC   =       -15.72834075
  -exchange      EXHF   =        11.38722530
  -V(xc)+E(xc)   XCENC  =       -14.35234648
  PAW double counting   =       931.52692635     -903.93356663
  entropy T*S    EENTRO =        -0.00000000
  eigenvalues    EBANDS =         0.28934187
  atomic energy  EATOM  =       203.99651003
  ---------------------------------------------------
  free energy    TOTEN  =       -11.97340097 eV

  energy without entropy =      -11.97340097  energy(sigma->0) =      -11.97340097
  exchange ACFDT corr.  =        -0.00000000  see jH, gK, PRB 81, 115126


--------------------------------------------------------------------------------------------------------




--------------------------------------- Iteration      1(   2)  ---------------------------------------


    POTLOK:  cpu time    0.0058: real time    0.0058
    SETDIJ:  cpu time    0.0178: real time    0.0178
    TRIAL :  cpu time    0.0328: real time    0.0328
    CORREC:  cpu time    0.0000: real time    0.0000
    CHARGE:  cpu time    0.0012: real time    0.0012
    --------------------------------------------
      LOOP:  cpu time    0.0577: real time    0.0578

 eigenvalue-minimisations  :     0
 total energy-change (2. order) :-0.2161220E-01  (-0.1714075E-01)
 number of electron       7.9999999 magnetization 
 augmentation part       -0.4296691 magnetization 

 Free energy of the ion-electron system (eV)
  ---------------------------------------------------
  alpha Z        PSCENC =         3.36228930
  Ewald energy   TEWEN  =      -228.52143995
  -Hartree energ DENC   =       -15.63271033
  -exchange      EXHF   =        11.39308077
  -V(xc)+E(xc)   XCENC  =       -14.34472717
  PAW double counting   =      1135.51235419    -1107.90759928
  entropy T*S    EENTRO =        -0.00000000
  eigenvalues    EBANDS =         0.14722927
  atomic energy  EATOM  =       203.99651003
  ---------------------------------------------------
  free energy    TOTEN  =       -11.99501317 eV

  energy without entropy =      -11.99501317  energy(sigma->0) =      -11.99501317
  exchange ACFDT corr.  =        -0.00000000  see jH, gK, PRB 81, 115126


--------------------------------------------------------------------------------------------------------




--------------------------------------- Iteration      1(   3)  ---------------------------------------


    POTLOK:  cpu time    0.0061: real time    0.0061
    SETDIJ:  cpu time    0.0173: real time    0.0173
    TRIAL :  cpu time    0.0329: real time    0.0329
    CORREC:  cpu time    0.0000: real time    0.0000
    CHARGE:  cpu time    0.0013: real time    0.0013
    --------------------------------------------
      LOOP:  cpu time    0.0577: real time    0.0578

 eigenvalue-minimisations  :     0
 total energy-change (2. order) :-0.1259828E-01  (-0.6285762E-02)
 number of electron       7.9999999 magnetization 
 augmentation part       -0.4253348 magnetization 

 Free energy of the ion-electron system (eV)
  ---------------------------------------------------
  alpha Z        PSCENC =         3.36228930
  Ewald energy   TEWEN  =      -228.52143995
  -Hartree energ DENC   =       -15.58559723
  -exchange      EXHF   =        11.40353675
  -V(xc)+E(xc)   XCENC  =       -14.33358172
  PAW double counting   =      1393.40739079    -1365.79315954
  entropy T*S    EENTRO =        -0.00000000
  eigenvalues    EBANDS =         0.05644012
  atomic energy  EATOM  =       203.99651003
  ---------------------------------------------------
  free energy    TOTEN  =       -12.00761145 eV

  energy without entropy =      -12.00761145  energy(sigma->0) =      -12.00761145
  exchange ACFDT corr.  =        -0.00000000  see jH, gK, PRB 81, 115126


--------------------------------------------------------------------------------------------------------




--------------------------------------- Iteration      1(   4)  ---------------------------------------


    POTLOK:  cpu time    0.0058: real time    0.0058
    SETDIJ:  cpu time    0.0177: real time    0.0177
    TRIAL :  cpu time    0.0329: real time    0.0329
    CORREC:  cpu time    0.0000: real time    0.0000
    CHARGE:  cpu time    0.0012: real time    0.0012
    --------------------------------------------
      LOOP:  cpu time    0.0576: real time    0.0577

 eigenvalue-minimisations  :     0
 total energy-change (2. order) :-0.4562834E-02  (-0.2290831E-02)
 number of electron       7.9999999 magnetization 
 augmentation part       -0.4235250 magnetization 

 Free energy of the ion-electron system (eV)
  ---------------------------------------------------
  alpha Z        PSCENC =         3.36228930
  Ewald energy   TEWEN  =      -228.52143995
  -Hartree energ DENC   =       -15.61093443
  -exchange      EXHF   =        11.41572444
  -V(xc)+E(xc)   XCENC  =       -14.32250938
  PAW double counting   =      1596.29407629    -1568.67608134
  entropy T*S    EENTRO =        -0.00000000
  eigenvalues    EBANDS =         0.05019076
  atomic energy  EATOM  =       203.99651003
  ---------------------------------------------------
  free energy    TOTEN  =       -12.01217429 eV

  energy without entropy =      -12.01217429  energy(sigma->0) =      -12.01217429
  exchange ACFDT corr.  =        -0.00000000  see jH, gK, PRB 81, 115126


--------------------------------------------------------------------------------------------------------




--------------------------------------- Iteration      1(   5)  ---------------------------------------


    POTLOK:  cpu time    0.0064: real time    0.0064
    SETDIJ:  cpu time    0.0214: real time    0.0214
    TRIAL :  cpu time    0.0334: real time    0.0335
    CORREC:  cpu time    0.0000: real time    0.0000
    CHARGE:  cpu time    0.0011: real time    0.0011
    --------------------------------------------
      LOOP:  cpu time    0.0625: real time    0.0626

 eigenvalue-minimisations  :     0
 total energy-change (2. order) :-0.1715646E-02  (-0.9340199E-03)
 number of electron       7.9999999 magnetization 
 augmentation part       -0.4229980 magnetization 

 Free energy of the ion-electron system (eV)
  ---------------------------------------------------
  alpha Z        PSCENC =         3.36228930
  Ewald energy   TEWEN  =      -228.52143995
  -Hartree energ DENC   =       -15.66366419
  -exchange      EXHF   =        11.42601600
  -V(xc)+E(xc)   XCENC  =       -14.31417078
  PAW double counting   =      1714.83155721    -1687.21339187
  entropy T*S    EENTRO =        -0.00000000
  eigenvalues    EBANDS =         0.08240432
  atomic energy  EATOM  =       203.99651003
  ---------------------------------------------------
  free energy    TOTEN  =       -12.01388993 eV

  energy without entropy =      -12.01388993  energy(sigma->0) =      -12.01388993
  exchange ACFDT corr.  =        -0.00000000  see jH, gK, PRB 81, 115126


--------------------------------------------------------------------------------------------------------




--------------------------------------- Iteration      1(   6)  ---------------------------------------


    POTLOK:  cpu time    0.0051: real time    0.0051
    SETDIJ:  cpu time    0.0178: real time    0.0178
    TRIAL :  cpu time    0.0328: real time    0.0328
    CORREC:  cpu time    0.0000: real time    0.0000
    CHARGE:  cpu time    0.0010: real time    0.0010
    --------------------------------------------
      LOOP:  cpu time    0.0568: real time    0.0569

 eigenvalue-minimisations  :     0
 total energy-change (2. order) :-0.7155984E-03  (-0.4009477E-03)
 number of electron       7.9999999 magnetization 
 augmentation part       -0.4229653 magnetization 

 Free energy of the ion-electron system (eV)
  ---------------------------------------------------
  alpha Z        PSCENC =         3.36228930
  Ewald energy   TEWEN  =      -228.52143995
  -Hartree energ DENC   =       -15.70911206
  -exchange      EXHF   =        11.43293212
  -V(xc)+E(xc)   XCENC  =       -14.30916234
  PAW double counting   =      1769.25459443    -1741.63757183
  entropy T*S    EENTRO =        -0.00000000
  eigenvalues    EBANDS =         0.11635476
  atomic energy  EATOM  =       203.99651003
  ---------------------------------------------------
  free energy    TOTEN  =       -12.01460553 eV

  energy without entropy =      -12.01460553  energy(sigma->0) =      -12.01460553
  exchange ACFDT corr.  =        -0.00000000  see jH, gK, PRB 81, 115126


--------------------------------------------------------------------------------------------------------




--------------------------------------- Iteration      1(   7)  ---------------------------------------


    POTLOK:  cpu time    0.0053: real time    0.0053
    SETDIJ:  cpu time    0.0173: real time    0.0173
    TRIAL :  cpu time    0.0329: real time    0.0330
    CORREC:  cpu time    0.0000: real time    0.0000
    CHARGE:  cpu time    0.0010: real time    0.0010
    --------------------------------------------
      LOOP:  cpu time    0.0568: real time    0.0569

 eigenvalue-minimisations  :     0
 total energy-change (2. order) :-0.3134534E-03  (-0.1809877E-03)
 number of electron       7.9999999 magnetization 
 augmentation part       -0.4230552 magnetization 

 Free energy of the ion-electron system (eV)
  ---------------------------------------------------
  alpha Z        PSCENC =         3.36228930
  Ewald energy   TEWEN  =      -228.52143995
  -Hartree energ DENC   =       -15.73660193
  -exchange      EXHF   =        11.43679794
  -V(xc)+E(xc)   XCENC  =       -14.30680782
  PAW double counting   =      1786.94965584    -1759.33369774
  entropy T*S    EENTRO =        -0.00000000
  eigenvalues    EBANDS =         0.13837535
  atomic energy  EATOM  =       203.99651003
  ---------------------------------------------------
  free energy    TOTEN  =       -12.01491898 eV

  energy without entropy =      -12.01491898  energy(sigma->0) =      -12.01491898
  exchange ACFDT corr.  =        -0.00000000  see jH, gK, PRB 81, 115126


--------------------------------------------------------------------------------------------------------




--------------------------------------- Iteration      1(   8)  ---------------------------------------


    POTLOK:  cpu time    0.0053: real time    0.0053
    SETDIJ:  cpu time    0.0172: real time    0.0172
    TRIAL :  cpu time    0.0329: real time    0.0330
    CORREC:  cpu time    0.0000: real time    0.0000
    CHARGE:  cpu time    0.0010: real time    0.0010
    --------------------------------------------
      LOOP:  cpu time    0.0565: real time    0.0565

 eigenvalue-minimisations  :     0
 total energy-change (2. order) :-0.1441507E-03  (-0.8420622E-04)
 number of electron       7.9999999 magnetization 
 augmentation part       -0.4231379 magnetization 

 Free energy of the ion-electron system (eV)
  ---------------------------------------------------
  alpha Z        PSCENC =         3.36228930
  Ewald energy   TEWEN  =      -228.52143995
  -Hartree energ DENC   =       -15.74931753
  -exchange      EXHF   =        11.43869897
  -V(xc)+E(xc)   XCENC  =       -14.30605808
  PAW double counting   =      1787.01545213    -1759.40015765
  entropy T*S    EENTRO =        -0.00000000
  eigenvalues    EBANDS =         0.14895964
  atomic energy  EATOM  =       203.99651003
  ---------------------------------------------------
  free energy    TOTEN  =       -12.01506313 eV

  energy without entropy =      -12.01506313  energy(sigma->0) =      -12.01506313
  exchange ACFDT corr.  =        -0.00000000  see jH, gK, PRB 81, 115126


--------------------------------------------------------------------------------------------------------




--------------------------------------- Iteration      1(   9)  ---------------------------------------


    POTLOK:  cpu time    0.0050: real time    0.0050
    SETDIJ:  cpu time    0.0172: real time    0.0172
    TRIAL :  cpu time    0.0328: real time    0.0329
    CORREC:  cpu time    0.0000: real time    0.0000
    CHARGE:  cpu time    0.0011: real time    0.0011
    --------------------------------------------
      LOOP:  cpu time    0.0562: real time    0.0563

 eigenvalue-minimisations  :     0
 total energy-change (2. order) :-0.6730060E-04  (-0.3847106E-04)
 number of electron       7.9999999 magnetization 
 augmentation part       -0.4231893 magnetization 

 Free energy of the ion-electron system (eV)
  ---------------------------------------------------
  alpha Z        PSCENC =         3.36228930
  Ewald energy   TEWEN  =      -228.52143995
  -Hartree energ DENC   =       -15.75417019
  -exchange      EXHF   =        11.43965862
  -V(xc)+E(xc)   XCENC  =       -14.30599186
  PAW double counting   =      1780.85873445    -1753.24375050
  entropy T*S    EENTRO =        -0.00000000
  eigenvalues    EBANDS =         0.15302965
  atomic energy  EATOM  =       203.99651003
  ---------------------------------------------------
  free energy    TOTEN  =       -12.01513043 eV

  energy without entropy =      -12.01513043  energy(sigma->0) =      -12.01513043
  exchange ACFDT corr.  =        -0.00000000  see jH, gK, PRB 81, 115126


--------------------------------------------------------------------------------------------------------




--------------------------------------- Iteration      1(  10)  ---------------------------------------


    POTLOK:  cpu time    0.0049: real time    0.0049
    SETDIJ:  cpu time    0.0182: real time    0.0182
    TRIAL :  cpu time    0.0348: real time    0.0349
    CORREC:  cpu time    0.0000: real time    0.0000
    CHARGE:  cpu time    0.0010: real time    0.0010
    --------------------------------------------
      LOOP:  cpu time    0.0590: real time    0.0591

 eigenvalue-minimisations  :     0
 total energy-change (2. order) :-0.3039575E-04  (-0.1671304E-04)
 number of electron       7.9999999 magnetization 
 augmentation part       -0.4232146 magnetization 

 Free energy of the ion-electron system (eV)
  ---------------------------------------------------
  alpha Z        PSCENC =         3.36228930
  Ewald energy   TEWEN  =      -228.52143995
  -Hartree energ DENC   =       -15.75636338
  -exchange      EXHF   =        11.44027562
  -V(xc)+E(xc)   XCENC  =       -14.30606572
  PAW double counting   =      1774.34350206    -1746.72863395
  entropy T*S    EENTRO =        -0.00000000
  eigenvalues    EBANDS =         0.15476517
  atomic energy  EATOM  =       203.99651003
  ---------------------------------------------------
  free energy    TOTEN  =       -12.01516083 eV

  energy without entropy =      -12.01516083  energy(sigma->0) =      -12.01516083
  exchange ACFDT corr.  =        -0.00000000  see jH, gK, PRB 81, 115126


--------------------------------------------------------------------------------------------------------




--------------------------------------- Iteration      1(  11)  ---------------------------------------


    POTLOK:  cpu time    0.0050: real time    0.0050
    SETDIJ:  cpu time    0.0172: real time    0.0172
    TRIAL :  cpu time    0.0327: real time    0.0328
    CORREC:  cpu time    0.0000: real time    0.0000
    CHARGE:  cpu time    0.0010: real time    0.0010
    --------------------------------------------
      LOOP:  cpu time    0.0560: real time    0.0561

 eigenvalue-minimisations  :     0
 total energy-change (2. order) :-0.1337921E-04  (-0.7639675E-05)
 number of electron       7.9999999 magnetization 
 augmentation part       -0.4232242 magnetization 

 Free energy of the ion-electron system (eV)
  ---------------------------------------------------
  alpha Z        PSCENC =         3.36228930
  Ewald energy   TEWEN  =      -228.52143995
  -Hartree energ DENC   =       -15.75815085
  -exchange      EXHF   =        11.44076392
  -V(xc)+E(xc)   XCENC  =       -14.30607403
  PAW double counting   =      1769.81196159    -1742.19713228
  entropy T*S    EENTRO =        -0.00000000
  eigenvalues    EBANDS =         0.15609805
  atomic energy  EATOM  =       203.99651003
  ---------------------------------------------------
  free energy    TOTEN  =       -12.01517421 eV

  energy without entropy =      -12.01517421  energy(sigma->0) =      -12.01517421
  exchange ACFDT corr.  =        -0.00000000  see jH, gK, PRB 81, 115126


--------------------------------------------------------------------------------------------------------




--------------------------------------- Iteration      1(  12)  ---------------------------------------


    POTLOK:  cpu time    0.0048: real time    0.0048
    SETDIJ:  cpu time    0.0172: real time    0.0172
    TRIAL :  cpu time    0.0328: real time    0.0329
    CORREC:  cpu time    0.0000: real time    0.0000
    CHARGE:  cpu time    0.0010: real time    0.0010
    --------------------------------------------
      LOOP:  cpu time    0.0560: real time    0.0561

 eigenvalue-minimisations  :     0
 total energy-change (2. order) :-0.6338130E-05  (-0.3901969E-05)
 number of electron       7.9999999 magnetization 
 augmentation part       -0.4232254 magnetization 

 Free energy of the ion-electron system (eV)
  ---------------------------------------------------
  alpha Z        PSCENC =         3.36228930
  Ewald energy   TEWEN  =      -228.52143995
  -Hartree energ DENC   =       -15.75985938
  -exchange      EXHF   =        11.44115005
  -V(xc)+E(xc)   XCENC  =       -14.30601261
  PAW double counting   =      1767.38160380    -1739.76680627
  entropy T*S    EENTRO =        -0.00000000
  eigenvalues    EBANDS =         0.15738448
  atomic energy  EATOM  =       203.99651003
  ---------------------------------------------------
  free energy    TOTEN  =       -12.01518055 eV

  energy without entropy =      -12.01518055  energy(sigma->0) =      -12.01518055
  exchange ACFDT corr.  =        -0.00000000  see jH, gK, PRB 81, 115126


--------------------------------------------------------------------------------------------------------




--------------------------------------- Iteration      1(  13)  ---------------------------------------


    POTLOK:  cpu time    0.0051: real time    0.0051
    SETDIJ:  cpu time    0.0175: real time    0.0175
    TRIAL :  cpu time    0.0332: real time    0.0332
    CORREC:  cpu time    0.0000: real time    0.0000
    CHARGE:  cpu time    0.0010: real time    0.0010
    --------------------------------------------
      LOOP:  cpu time    0.0568: real time    0.0569

 eigenvalue-minimisations  :     0
 total energy-change (2. order) :-0.3338077E-05  (-0.2145138E-05)
 number of electron       7.9999999 magnetization 
 augmentation part       -0.4232230 magnetization 

 Free energy of the ion-electron system (eV)
  ---------------------------------------------------
  alpha Z        PSCENC =         3.36228930
  Ewald energy   TEWEN  =      -228.52143995
  -Hartree energ DENC   =       -15.76119774
  -exchange      EXHF   =        11.44142507
  -V(xc)+E(xc)   XCENC  =       -14.30593528
  PAW double counting   =      1766.32165674    -1738.70687469
  entropy T*S    EENTRO =        -0.00000000
  eigenvalues    EBANDS =         0.15838264
  atomic energy  EATOM  =       203.99651003
  ---------------------------------------------------
  free energy    TOTEN  =       -12.01518389 eV

  energy without entropy =      -12.01518389  energy(sigma->0) =      -12.01518389
  exchange ACFDT corr.  =        -0.00000000  see jH, gK, PRB 81, 115126


--------------------------------------------------------------------------------------------------------




--------------------------------------- Iteration      1(  14)  ---------------------------------------


    POTLOK:  cpu time    0.0046: real time    0.0046
    SETDIJ:  cpu time    0.0172: real time    0.0172
    TRIAL :  cpu time    0.0331: real time    0.0332
    CORREC:  cpu time    0.0000: real time    0.0000
    CHARGE:  cpu time    0.0010: real time    0.0010
    --------------------------------------------
      LOOP:  cpu time    0.0560: real time    0.0561

 eigenvalue-minimisations  :     0
 total energy-change (2. order) :-0.1889609E-05  (-0.1268308E-05)
 number of electron       7.9999999 magnetization 
 augmentation part       -0.4232200 magnetization 

 Free energy of the ion-electron system (eV)
  ---------------------------------------------------
  alpha Z        PSCENC =         3.36228930
  Ewald energy   TEWEN  =      -228.52143995
  -Hartree energ DENC   =       -15.76206144
  -exchange      EXHF   =        11.44160266
  -V(xc)+E(xc)   XCENC  =       -14.30587467
  PAW double counting   =      1765.96127933    -1738.34650222
  entropy T*S    EENTRO =        -0.00000000
  eigenvalues    EBANDS =         0.15901118
  atomic energy  EATOM  =       203.99651003
  ---------------------------------------------------
  free energy    TOTEN  =       -12.01518577 eV

  energy without entropy =      -12.01518577  energy(sigma->0) =      -12.01518577
  exchange ACFDT corr.  =        -0.00000000  see jH, gK, PRB 81, 115126


--------------------------------------------------------------------------------------------------------




--------------------------------------- Iteration      1(  15)  ---------------------------------------


    POTLOK:  cpu time    0.0050: real time    0.0050
    SETDIJ:  cpu time    0.0173: real time    0.0173
    TRIAL :  cpu time    0.0331: real time    0.0332
    CORREC:  cpu time    0.0000: real time    0.0000
    CHARGE:  cpu time    0.0011: real time    0.0011
    --------------------------------------------
      LOOP:  cpu time    0.0567: real time    0.0567

 eigenvalue-minimisations  :     0
 total energy-change (2. order) :-0.1151767E-05  (-0.8197526E-06)
 number of electron       7.9999999 magnetization 
 augmentation part       -0.4232175 magnetization 

 Free energy of the ion-electron system (eV)
  ---------------------------------------------------
  alpha Z        PSCENC =         3.36228930
  Ewald energy   TEWEN  =      -228.52143995
  -Hartree energ DENC   =       -15.76255528
  -exchange      EXHF   =        11.44171141
  -V(xc)+E(xc)   XCENC  =       -14.30583628
  PAW double counting   =      1765.89125582    -1738.27647892
  entropy T*S    EENTRO =        -0.00000000
  eigenvalues    EBANDS =         0.15935694
  atomic energy  EATOM  =       203.99651003
  ---------------------------------------------------
  free energy    TOTEN  =       -12.01518693 eV

  energy without entropy =      -12.01518693  energy(sigma->0) =      -12.01518693
  exchange ACFDT corr.  =        -0.00000000  see jH, gK, PRB 81, 115126


--------------------------------------------------------------------------------------------------------




--------------------------------------- Iteration      1(  16)  ---------------------------------------


    POTLOK:  cpu time    0.0046: real time    0.0046
    SETDIJ:  cpu time    0.0176: real time    0.0176
    TRIAL :  cpu time    0.0330: real time    0.0331
    CORREC:  cpu time    0.0000: real time    0.0000
    EDDIAG:  cpu time    0.0321: real time    0.0321
    CHARGE:  cpu time    0.0010: real time    0.0010
    --------------------------------------------
      LOOP:  cpu time    0.0884: real time    0.0885

 eigenvalue-minimisations  :     0
 total energy-change (2. order) :-0.7609430E-06  (-0.5919335E-06)
 number of electron       7.9999999 magnetization 
 augmentation part       -0.4232158 magnetization 

 Free energy of the ion-electron system (eV)
  ---------------------------------------------------
  alpha Z        PSCENC =         3.36228930
  Ewald energy   TEWEN  =      -228.52143995
  -Hartree energ DENC   =       -15.76281854
  -exchange      EXHF   =        11.44181802
  -V(xc)+E(xc)   XCENC  =       -14.30581443
  PAW double counting   =      1765.92284714    -1738.30806852
  entropy T*S    EENTRO =        -0.00000000
  eigenvalues    EBANDS =         0.15953010
  atomic energy  EATOM  =       203.99651003
  ---------------------------------------------------
  free energy    TOTEN  =       -12.01518769 eV

  energy without entropy =      -12.01518769  energy(sigma->0) =      -12.01518769
  exchange ACFDT corr.  =        -0.00000000  see jH, gK, PRB 81, 115126


--------------------------------------------------------------------------------------------------------


  average scaling for gradient   1.0289


 average (electrostatic) potential at core
  the test charge radii are     0.9892
  (the norm of the test charge is              1.0000)
       1 -79.3665       2 -79.3665
 
 
 
 E-fermi :   5.7086     XC(G=0):  -7.7826     alpha+bet :-11.9779


 k-point     1 :       0.0000    0.0000    0.0000
  band No.  band energies     occupation 
      1      -7.7366      2.00000
      2       5.4715      2.00000
      3       5.4715      2.00000
      4       5.4715      2.00000
      5       8.9006      0.00000
      6       8.9006      0.00000
      7       8.9006      0.00000
      8       9.9795      0.00000

 k-point     2 :       0.3333    0.0000    0.0000
  band No.  band energies     occupation 
      1      -6.2086      2.00000
      2      -0.3203      2.00000
      3       4.4000      2.00000
      4       4.4000      2.00000
      5       8.1132      0.00000
      6       9.8878      0.00000
      7       9.8878      0.00000
      8      14.4296      0.00000

 k-point     3 :       0.3333    0.3333    0.0000
  band No.  band energies     occupation 
      1      -5.6203      2.00000
      2       0.0439      2.00000
      3       2.8508      2.00000
      4       2.8508      2.00000
      5       6.9175      0.00000
      6       8.2525      0.00000
      7      13.9454      0.00000
      8      13.9454      0.00000

 k-point     4 :      -0.3333    0.3333    0.0000
  band No.  band energies     occupation 
      1      -4.1041      2.00000
      2      -1.9418      2.00000
      3       0.7367      2.00000
      4       3.1889      2.00000
      5       7.8164      0.00000
      6      12.2469      0.00000
      7      13.1161      0.00000
      8      13.7368      0.00000


--------------------------------------------------------------------------------------------------------


 soft charge-density along one line, spin component           1
         0         1         2         3         4         5         6         7         8         9
 total charge-density along one line
 
 pseudopotential strength for first ion, spin component:           1
 17.839  24.890   0.000   0.000   0.000   0.000   0.000   0.000
 24.890  34.732   0.000   0.000   0.000   0.000   0.000   0.000
  0.000   0.000   4.075  -0.000  -0.000   7.596  -0.000  -0.000
  0.000   0.000  -0.000   4.075  -0.000  -0.000   7.596  -0.000
  0.000   0.000  -0.000  -0.000   4.075  -0.000  -0.000   7.596
  0.000   0.000   7.596  -0.000  -0.000  14.170  -0.000  -0.000
  0.000   0.000  -0.000   7.596  -0.000  -0.000  14.170  -0.000
  0.000   0.000  -0.000  -0.000   7.596  -0.000  -0.000  14.170
 total augmentation occupancy for first ion, spin component:           1
 11.180  -5.298  -0.000  -0.000  -0.000   0.000   0.000   0.000
 -5.298   2.543   0.000   0.000   0.000  -0.000  -0.000  -0.000
 -0.000   0.000   4.043   0.000   0.000  -1.071  -0.000  -0.000
 -0.000   0.000   0.000   4.043   0.000  -0.000  -1.071  -0.000
 -0.000   0.000   0.000   0.000   4.043  -0.000  -0.000  -1.071
  0.000  -0.000  -1.071  -0.000  -0.000   0.291   0.000   0.000
  0.000  -0.000  -0.000  -1.071  -0.000   0.000   0.291   0.000
  0.000  -0.000  -0.000  -0.000  -1.071   0.000   0.000   0.291


------------------------ aborting loop because EDIFF is reached ----------------------------------------


    FORLOC:  cpu time    0.0005: real time    0.0005
    FORHF :  cpu time    0.0412: real time    0.0412
    FORNL :  cpu time    0.0005: real time    0.0005
    FORCOR:  cpu time    0.0222: real time    0.0222
    OFIELD:  cpu time    0.0000: real time    0.0000

 VOLUME and BASIS-vectors are now :
 -----------------------------------------------------------------------------
  energy-cutoff  :      320.00
  volume of cell :       40.05
      direct lattice vectors                 reciprocal lattice vectors
     0.000000000  2.715500000  2.715500000    -0.184128153  0.184128153  0.184128153
     2.715500000  0.000000000  2.715500000     0.184128153 -0.184128153  0.184128153
     2.715500000  2.715500000  0.000000000     0.184128153  0.184128153 -0.184128153

  length of vectors
     3.840296929  3.840296929  3.840296929     0.318919316  0.318919316  0.318919316


 FORCES acting on ions:
    Electron-Ion                     Ewald-Force                    Non-Local-Force
 -----------------------------------------------------------------------------------------------
   0.134E-05 0.515E-06 0.809E-06   -.397E-14 -.182E-14 -.234E-14   -.416E-16 0.278E-16 0.108E-16
   -.128E-05 -.490E-06 -.779E-06   0.406E-14 0.186E-14 0.175E-14   -.139E-16 -.416E-16 -.126E-16
 -----------------------------------------------------------------------------------------------
   -.645E-07 -.107E-06 -.100E-06   0.952E-16 0.335E-16 -.584E-15   -.555E-16 -.139E-16 -.173E-17
 
 
 POSITION                                       TOTAL-FORCE (eV/Angst)
 -----------------------------------------------------------------------------------
      0.00000      0.00000      0.00000         0.000000     -0.000000      0.000000
      1.35775      1.35775      1.35775        -0.000000      0.000000     -0.000000
 -----------------------------------------------------------------------------------
    total drift:                               -0.000000     -0.000000     -0.000000


--------------------------------------------------------------------------------------------------------



  FREE ENERGIE OF THE ION-ELECTRON SYSTEM (eV)
  ---------------------------------------------------
  free  energy   TOTEN  =       -12.01518769 eV

  energy  without entropy=      -12.01518769  energy(sigma->0) =      -12.01518769
 


--------------------------------------------------------------------------------------------------------


    POTLOK:  cpu time    0.0224: real time    0.0224


--------------------------------------------------------------------------------------------------------


     LOOP+:  cpu time    1.0468: real time    1.0524
    4ORBIT:  cpu time    0.0000: real time    0.0000

 total amount of memory used by VASP MPI-rank0    30874. kBytes
=======================================================================

   base      :      30000. kBytes
   nonl-proj :         43. kBytes
   fftplans  :        297. kBytes
   grid      :        367. kBytes
   one-center:          3. kBytes
   HF        :          4. kBytes
   nonlr-proj:        130. kBytes
   wavefun   :         30. kBytes
 
  
  
 General timing and accounting informations for this job:
 ========================================================
  
                  Total CPU time used (sec):        2.467
                            User time (sec):        2.183
                          System time (sec):        0.284
                         Elapsed time (sec):        2.780
  
                   Maximum memory used (kb):      241388.
                   Average memory used (kb):           0.
  
                          Minor page faults:        33373
                          Major page faults:         2438
                 Voluntary context switches:          202
