 running on   32 total cores
 distrk:  each k-point on   32 cores,    1 groups
 distr:  one band on    4 cores,    8 groups
 using from now: INCAR     
 vasp.5.4.4.18Apr17-6-g9f103f2a35 (build Mar 10 2026 18:13:51) complex          
  
 POSCAR found type information on POSCAR  Si
 POSCAR found :  1 types and       2 ions
 scaLAPACK will be used
 LDA part: xc-table for Pade appr. of Perdew
 POSCAR, INCAR and KPOINTS ok, starting setup
 FFT: planning ...
 WAVECAR not read
 entering main loop
       N       E                     dE             d eps       ncg     rms          rms(c)
DAV:   1     0.407636521738E+01    0.40764E+01   -0.26021E+03    64   0.516E+02
DAV:   2    -0.103059998380E+02   -0.14382E+02   -0.13885E+02   104   0.682E+01
DAV:   3    -0.104609961401E+02   -0.15500E+00   -0.15500E+00    64   0.954E+00
DAV:   4    -0.104619313788E+02   -0.93524E-03   -0.93524E-03   112   0.891E-01
DAV:   5    -0.104619320828E+02   -0.70392E-06   -0.70392E-06    72   0.931E-03    0.518E+00
DAV:   6    -0.102947422735E+02    0.16719E+00   -0.10589E-01    80   0.173E+00    0.320E+00
DAV:   7    -0.102205862132E+02    0.74156E-01   -0.20680E-01    80   0.259E+00    0.233E-01
DAV:   8    -0.102229321008E+02   -0.23459E-02   -0.54248E-03    64   0.531E-01    0.717E-02
DAV:   9    -0.102233431576E+02   -0.41106E-03   -0.39672E-04    96   0.148E-01    0.628E-02
DAV:  10    -0.102233898492E+02   -0.46692E-04   -0.71045E-05    64   0.632E-02    0.152E-02
DAV:  11    -0.102233892294E+02    0.61974E-06   -0.81633E-07   104   0.675E-03
   1 F= -.10223389E+02 E0= -.10223389E+02  d E =-.890536E-15
 writing wavefunctions
