 running on   32 total cores
 distrk:  each k-point on   32 cores,    1 groups
 distr:  one band on    4 cores,    8 groups
 using from now: INCAR     
 vasp.5.4.4.18Apr17-6-g9f103f2a35 (build Mar 10 2026 18:13:51) complex          
  
 POSCAR found type information on POSCAR  Si
 POSCAR found :  1 types and       2 ions
 scaLAPACK will be used
 LDA part: xc-table for Pade appr. of Perdew
 found WAVECAR, reading the header
 POSCAR, INCAR and KPOINTS ok, starting setup
 FFT: planning ...
 reading WAVECAR
 the WAVECAR file was read successfully
 initial charge from wavefunction
 entering main loop
       N       E                     dE             d eps       ncg     rms          ort
 gam= 0.000 g(H,U,f)=  0.614E-01 0.534E-02 0.529E-13 ort(H,U,f) = 0.000E+00 0.000E+00 0.000E+00
SDA:   1    -0.119734009697E+02   -0.11973E+02   -0.26708E-01    32   0.668E-01 0.000E+00
 gam= 0.382 g(H,U,f)=  0.231E-01 0.391E-02 0.772E-21 ort(H,U,f) = 0.370E-01 0.441E-02-0.106E-21
DMP:   2    -0.119950131722E+02   -0.21612E-01   -0.17141E-01    32   0.270E-01 0.414E-01
 gam= 0.382 g(H,U,f)=  0.555E-02 0.244E-02 0.775E-13 ort(H,U,f) = 0.160E-01 0.423E-02 0.135E-12
DMP:   3    -0.120076114514E+02   -0.12598E-01   -0.62858E-02    32   0.799E-02 0.202E-01
 gam= 0.382 g(H,U,f)=  0.168E-02 0.133E-02 0.278E-21 ort(H,U,f) = 0.425E-02 0.288E-02 0.611E-21
DMP:   4    -0.120121742850E+02   -0.45628E-02   -0.22908E-02    32   0.300E-02 0.713E-02
 gam= 0.382 g(H,U,f)=  0.604E-03 0.643E-03 0.210E-12 ort(H,U,f) = 0.120E-02 0.164E-02 0.565E-12
DMP:   5    -0.120138899309E+02   -0.17156E-02   -0.93402E-03    32   0.125E-02 0.285E-02
 gam= 0.382 g(H,U,f)=  0.245E-03 0.287E-03 0.775E-15 ort(H,U,f) = 0.401E-03 0.831E-03 0.243E-14
DMP:   6    -0.120146055294E+02   -0.71560E-03   -0.40095E-03    32   0.532E-03 0.123E-02
 gam= 0.382 g(H,U,f)=  0.119E-03 0.121E-03 0.814E-17 ort(H,U,f) = 0.170E-03 0.386E-03 0.287E-16
DMP:   7    -0.120149189827E+02   -0.31345E-03   -0.18099E-03    32   0.240E-03 0.557E-03
 gam= 0.382 g(H,U,f)=  0.600E-04 0.495E-04 0.132E-21 ort(H,U,f) = 0.945E-04 0.170E-03 0.188E-21
DMP:   8    -0.120150631334E+02   -0.14415E-03   -0.84206E-04    32   0.109E-03 0.264E-03
 gam= 0.382 g(H,U,f)=  0.283E-04 0.200E-04 0.524E-22 ort(H,U,f) = 0.533E-04 0.722E-04-0.256E-22
DMP:   9    -0.120151304340E+02   -0.67301E-04   -0.38471E-04    32   0.483E-04 0.125E-03
 gam= 0.382 g(H,U,f)=  0.120E-04 0.798E-05 0.598E-22 ort(H,U,f) = 0.272E-04 0.299E-04 0.493E-23
DMP:  10    -0.120151608297E+02   -0.30396E-04   -0.16713E-04    32   0.200E-04 0.571E-04
 gam= 0.382 g(H,U,f)=  0.608E-05 0.312E-05 0.393E-22 ort(H,U,f) = 0.139E-04 0.121E-04 0.363E-22
DMP:  11    -0.120151742090E+02   -0.13379E-04   -0.76397E-05    32   0.920E-05 0.259E-04
 gam= 0.382 g(H,U,f)=  0.360E-05 0.118E-05 0.171E-22 ort(H,U,f) = 0.829E-05 0.474E-05 0.307E-22
DMP:  12    -0.120151805471E+02   -0.63381E-05   -0.39020E-05    32   0.478E-05 0.130E-04
 gam= 0.382 g(H,U,f)=  0.219E-05 0.435E-06 0.637E-23 ort(H,U,f) = 0.535E-05 0.181E-05 0.162E-22
DMP:  13    -0.120151838852E+02   -0.33381E-05   -0.21451E-05    32   0.263E-05 0.716E-05
 gam= 0.382 g(H,U,f)=  0.142E-05 0.157E-06 0.226E-23 ort(H,U,f) = 0.350E-05 0.671E-06 0.684E-23
DMP:  14    -0.120151857748E+02   -0.18896E-05   -0.12683E-05    32   0.158E-05 0.417E-05
 gam= 0.382 g(H,U,f)=  0.992E-06 0.555E-07 0.774E-24 ort(H,U,f) = 0.238E-05 0.244E-06 0.237E-23
DMP:  15    -0.120151869265E+02   -0.11518E-05   -0.81975E-06    32   0.105E-05 0.262E-05
 gam= 0.382 g(H,U,f)=  0.782E-06 0.195E-07 0.365E-25 ort(H,U,f) = 0.169E-05 0.871E-07-0.582E-25
DMP:  16    -0.120151876875E+02   -0.76094E-06   -0.59193E-06    32   0.801E-06 0.178E-05
 final diagonalization
   1 F= -.12015188E+02 E0= -.12015188E+02  d E =-.524942E-12
