<?xml version="1.0" encoding="ISO-8859-1"?>
<modeling>
 <generator>
  <i name="program" type="string">vasp </i>
  <i name="version" type="string">5.4.4.18Apr17-6-g9f103f2a35  </i>
  <i name="subversion" type="string">(build Mar 10 2026 18:13:51) complex            parallel </i>
  <i name="platform" type="string">LinuxIFC </i>
  <i name="date" type="string">2026 06 25 </i>
  <i name="time" type="string">14:53:08 </i>
 </generator>
 <incar>
  <i type="string" name="SYSTEM"> Si-HSE06-k333-vasp  (HSE06)</i>
  <i type="int" name="ISTART">     1</i>
  <i type="string" name="PREC">accurate</i>
  <i type="string" name="ALGO"> Damped</i>
  <i type="int" name="ICHARG">     0</i>
  <i type="int" name="NELM">   120</i>
  <i name="EDIFF">      0.00000100</i>
  <i name="ENCUT">    320.00000000</i>
  <i type="logical" name="LREAL"> F  </i>
  <i name="TIME">      0.40000000</i>
  <i type="int" name="ISMEAR">     0</i>
  <i name="SIGMA">      0.05000000</i>
  <i type="logical" name="LWAVE"> F  </i>
  <i type="logical" name="LCHARG"> F  </i>
  <v type="int" name="KPOINT_BSE">    -1     0     0     0</v>
  <i type="int" name="NELM">   120</i>
  <i type="logical" name="LHFCALC"> T  </i>
  <i name="HFSCREEN">      0.20000000</i>
  <i name="AEXX">      0.25000000</i>
  <i type="string" name="PRECFOCK">fast</i>
 </incar>
 <structure name="primitive_cell" >
  <crystal>
   <varray name="basis" >
    <v>       0.00000000       2.71550000       2.71550000 </v>
    <v>       2.71550000       0.00000000       2.71550000 </v>
    <v>       2.71550000       2.71550000       0.00000000 </v>
   </varray>
   <i name="volume">     40.04786950 </i>
   <varray name="rec_basis" >
    <v>      -0.18412815       0.18412815       0.18412815 </v>
    <v>       0.18412815      -0.18412815       0.18412815 </v>
    <v>       0.18412815       0.18412815      -0.18412815 </v>
   </varray>
  </crystal>
  <varray name="positions" >
   <v>       0.00000000       0.00000000       0.00000000 </v>
   <v>       0.25000000       0.25000000       0.25000000 </v>
  </varray>
 </structure>
 <varray name="primitive_index" >
  <v type="int" >        1 </v>
  <v type="int" >        2 </v>
 </varray>
 <kpoints>
  <generation param="Gamma">
   <v type="int" name="divisions">       3        3        3 </v>
   <v name="usershift">      0.00000000       0.00000000       0.00000000 </v>
   <v name="genvec1">      0.33333333       0.00000000       0.00000000 </v>
   <v name="genvec2">      0.00000000       0.33333333       0.00000000 </v>
   <v name="genvec3">      0.00000000       0.00000000       0.33333333 </v>
   <v name="shift">      0.00000000       0.00000000       0.00000000 </v>
  </generation>
  <varray name="kpointlist" >
   <v>       0.00000000       0.00000000       0.00000000 </v>
   <v>       0.33333333       0.00000000       0.00000000 </v>
   <v>       0.33333333       0.33333333       0.00000000 </v>
   <v>      -0.33333333       0.33333333       0.00000000 </v>
  </varray>
  <varray name="weights" >
   <v>       0.03703704 </v>
   <v>       0.29629630 </v>
   <v>       0.22222222 </v>
   <v>       0.44444444 </v>
  </varray>
 </kpoints>
 <parameters>
  <separator name="general" >
   <i type="string" name="SYSTEM">Si-HSE06-k333-vasp  (HSE06)</i>
   <i type="logical" name="LCOMPAT"> F  </i>
  </separator>
  <separator name="electronic" >
   <i type="string" name="PREC">accura</i>
   <i name="ENMAX">    320.00000000</i>
   <i name="ENAUG">    322.06900000</i>
   <i name="EDIFF">      0.00000100</i>
   <i type="int" name="IALGO">    53</i>
   <i type="int" name="IWAVPR">    10</i>
   <i type="int" name="NBANDS">     8</i>
   <i name="NELECT">      8.00000000</i>
   <i type="int" name="TURBO">     0</i>
   <i type="int" name="IRESTART">     0</i>
   <i type="int" name="NREBOOT">     0</i>
   <i type="int" name="NMIN">     0</i>
   <i name="EREF">      0.00000000</i>
   <separator name="electronic smearing" >
    <i type="int" name="ISMEAR">     0</i>
    <i name="SIGMA">      0.05000000</i>
    <i name="KSPACING">      0.50000000</i>
    <i type="logical" name="KGAMMA"> T  </i>
   </separator>
   <separator name="electronic projectors" >
    <i type="logical" name="LREAL"> F  </i>
    <v name="ROPT">      0.00000000</v>
    <i type="int" name="LMAXPAW">  -100</i>
    <i type="int" name="LMAXMIX">     2</i>
    <i type="logical" name="NLSPLINE"> F  </i>
   </separator>
   <separator name="electronic startup" >
    <i type="int" name="ISTART">     1</i>
    <i type="int" name="ICHARG">     0</i>
    <i type="int" name="INIWAV">     1</i>
   </separator>
   <separator name="electronic spin" >
    <i type="int" name="ISPIN">     1</i>
    <i type="logical" name="LNONCOLLINEAR"> F  </i>
    <v name="MAGMOM">      1.00000000      1.00000000</v>
    <i name="NUPDOWN">     -1.00000000</i>
    <i type="logical" name="LSORBIT"> F  </i>
    <v name="SAXIS">      0.00000000      0.00000000      1.00000000</v>
    <i type="logical" name="LSPIRAL"> F  </i>
    <v name="QSPIRAL">      0.00000000      0.00000000      0.00000000</v>
    <i type="logical" name="LZEROZ"> F  </i>
   </separator>
   <separator name="electronic exchange-correlation" >
    <i type="logical" name="LASPH"> F  </i>
    <i type="logical" name="LMETAGGA"> F  </i>
   </separator>
   <separator name="electronic convergence" >
    <i type="int" name="NELM">   120</i>
    <i type="int" name="NELMDL">     0</i>
    <i type="int" name="NELMIN">     2</i>
    <i name="ENINI">    320.00000000</i>
    <separator name="electronic convergence detail" >
     <i type="logical" name="LDIAG"> T  </i>
     <i type="logical" name="LSUBROT"> F  </i>
     <i name="WEIMIN">      0.00000000</i>
     <i name="EBREAK">      0.00000003</i>
     <i name="DEPER">      0.30000000</i>
     <i type="int" name="NRMM">     4</i>
     <i name="TIME">      0.40000000</i>
    </separator>
   </separator>
   <separator name="electronic mixer" >
    <i name="AMIX">      0.40000000</i>
    <i name="BMIX">      1.00000000</i>
    <i name="AMIN">      0.10000000</i>
    <i name="AMIX_MAG">      1.60000000</i>
    <i name="BMIX_MAG">      1.00000000</i>
    <separator name="electronic mixer details" >
     <i type="int" name="IMIX">     4</i>
     <i type="logical" name="MIXFIRST"> F  </i>
     <i type="int" name="MAXMIX">   -45</i>
     <i name="WC">    100.00000000</i>
     <i type="int" name="INIMIX">     1</i>
     <i type="int" name="MIXPRE">     1</i>
     <i type="int" name="MREMOVE">     5</i>
    </separator>
   </separator>
   <separator name="electronic dipolcorrection" >
    <i type="logical" name="LDIPOL"> F  </i>
    <i type="logical" name="LMONO"> F  </i>
    <i type="int" name="IDIPOL">     0</i>
    <i name="EPSILON">      1.00000000</i>
    <v name="DIPOL">   -100.00000000   -100.00000000   -100.00000000</v>
    <i name="EFIELD">      0.00000000</i>
   </separator>
  </separator>
  <separator name="grids" >
   <i type="int" name="NGX">    24</i>
   <i type="int" name="NGY">    24</i>
   <i type="int" name="NGZ">    24</i>
   <i type="int" name="NGXF">    48</i>
   <i type="int" name="NGYF">    48</i>
   <i type="int" name="NGZF">    48</i>
   <i type="logical" name="ADDGRID"> F  </i>
  </separator>
  <separator name="ionic" >
   <i type="int" name="NSW">     0</i>
   <i type="int" name="IBRION">    -1</i>
   <i type="int" name="MDALGO">     0</i>
   <i type="int" name="ISIF">     0</i>
   <i name="PSTRESS">      0.00000000</i>
   <i name="EDIFFG">      0.00001000</i>
   <i type="int" name="NFREE">     0</i>
   <i name="POTIM">      0.50000000</i>
   <i name="SMASS">     -3.00000000</i>
   <i name="SCALEE">      1.00000000</i>
  </separator>
  <separator name="ionic md" >
   <i name="TEBEG">      0.00010000</i>
   <i name="TEEND">      0.00010000</i>
   <i type="int" name="NBLOCK">     1</i>
   <i type="int" name="KBLOCK">     1</i>
   <i type="int" name="NPACO">   256</i>
   <i name="APACO">     16.00000000</i>
  </separator>
  <separator name="symmetry" >
   <i type="int" name="ISYM">     3</i>
   <i name="SYMPREC">      0.00001000</i>
  </separator>
  <separator name="dos" >
   <i type="int" name="LORBIT">     0</i>
   <v name="RWIGS">     -1.00000000</v>
   <i type="int" name="NEDOS">   301</i>
   <i name="EMIN">     10.00000000</i>
   <i name="EMAX">    -10.00000000</i>
   <i name="EFERMI">      0.00000000</i>
  </separator>
  <separator name="writing" >
   <i type="int" name="NWRITE">     2</i>
   <i type="logical" name="LWAVE"> F  </i>
   <i type="logical" name="LDOWNSAMPLE"> F  </i>
   <i type="logical" name="LCHARG"> F  </i>
   <i type="logical" name="LPARD"> F  </i>
   <i type="logical" name="LVTOT"> F  </i>
   <i type="logical" name="LVHAR"> F  </i>
   <i type="logical" name="LELF"> F  </i>
   <i type="logical" name="LOPTICS"> F  </i>
   <v name="STM">      0.00000000      0.00000000      0.00000000      0.00000000      0.00000000      0.00000000      0.00000000</v>
  </separator>
  <separator name="performance" >
   <i type="int" name="NPAR">     8</i>
   <i type="int" name="NSIM">     4</i>
   <i type="int" name="NBLK">    -1</i>
   <i type="logical" name="LPLANE"> T  </i>
   <i type="logical" name="LSCALAPACK"> T  </i>
   <i type="logical" name="LSCAAWARE"> F  </i>
   <i type="logical" name="LSCALU"> F  </i>
   <i type="logical" name="LASYNC"> F  </i>
   <i type="logical" name="LORBITALREAL"> F  </i>
  </separator>
  <separator name="miscellaneous" >
   <i type="int" name="IDIOT">     3</i>
   <i type="int" name="ISPECIAL">     0</i>
   <i type="logical" name="LMUSIC"> F  </i>
   <v name="POMASS">     28.08500000</v>
   <v name="DARWINR">      0.00000000</v>
   <v name="DARWINV">      1.00000000</v>
   <i type="logical" name="LCORR"> T  </i>
  </separator>
  <i type="logical" name="GGA_COMPAT"> T  </i>
  <i type="logical" name="LBERRY"> F  </i>
  <i type="int" name="ICORELEVEL">     0</i>
  <i type="logical" name="LDAU"> F  </i>
  <i type="int" name="I_CONSTRAINED_M">     0</i>
  <separator name="electronic exchange-correlation" >
   <i type="string" name="GGA">--</i>
   <i type="int" name="VOSKOWN">     0</i>
   <i type="logical" name="LHFCALC"> T  </i>
   <i type="string" name="PRECFOCK">fast</i>
   <i type="logical" name="LSYMGRAD"> F  </i>
   <i type="logical" name="LHFONE"> F  </i>
   <i type="logical" name="LRHFCALC"> F  </i>
   <i type="logical" name="LTHOMAS"> F  </i>
   <i type="logical" name="LMODELHF"> F  </i>
   <i name="ENCUT4O">     -1.00000000</i>
   <i type="int" name="EXXOEP">     0</i>
   <i type="int" name="FOURORBIT">     0</i>
   <i name="AEXX">      0.25000000</i>
   <i name="HFALPHA">     -1.00000000</i>
   <i name="MCALPHA">      0.00000000</i>
   <i name="ALDAX">      0.75000000</i>
   <i name="AGGAX">      0.75000000</i>
   <i name="ALDAC">      1.00000000</i>
   <i name="AGGAC">      1.00000000</i>
   <i type="int" name="NKREDX">     1</i>
   <i type="int" name="NKREDY">     1</i>
   <i type="int" name="NKREDZ">     1</i>
   <i type="logical" name="SHIFTRED"> F  </i>
   <i type="logical" name="ODDONLY"> F  </i>
   <i type="logical" name="EVENONLY"> F  </i>
   <i type="int" name="LMAXFOCK">     4</i>
   <i type="int" name="NMAXFOCKAE">     1</i>
   <i type="logical" name="LFOCKAEDFT"> F  </i>
   <i name="HFSCREEN">      0.20000000</i>
   <i name="HFSCREENC">      0.20000000</i>
   <i type="int" name="NBANDSGWLOW">     1</i>
  </separator>
  <separator name="vdW DFT" >
   <i type="logical" name="LUSE_VDW"> F  </i>
   <i name="Zab_VDW">     -0.84910000</i>
   <i name="PARAM1">      0.12340000</i>
   <i name="PARAM2">      1.00000000</i>
   <i name="PARAM3">      0.00000000</i>
  </separator>
  <separator name="model GW" >
   <i type="int" name="MODEL_GW">     0</i>
   <i name="MODEL_EPS0">     12.01436085</i>
   <i name="MODEL_ALPHA">      1.00000000</i>
  </separator>
  <separator name="linear response parameters" >
   <i type="logical" name="LEPSILON"> F  </i>
   <i type="logical" name="LRPA"> F  </i>
   <i type="logical" name="LNABLA"> F  </i>
   <i type="logical" name="LVEL"> F  </i>
   <i type="int" name="KINTER">     0</i>
   <i name="CSHIFT">      0.10000000</i>
   <i name="OMEGAMAX">     -1.00000000</i>
   <i name="DEG_THRESHOLD">      0.00200000</i>
   <i name="RTIME">     -0.10000000</i>
   <i name="WPLASMAI">      0.00000000</i>
   <v name="DFIELD">      0.00000000      0.00000000      0.00000000</v>
   <v name="WPLASMA">      0.00000000      0.00000000      0.00000000      0.00000000      0.00000000      0.00000000      0.00000000      0.00000000      0.00000000</v>
  </separator>
  <separator name="orbital magnetization" >
   <i type="logical" name="NUCIND"> F  </i>
   <v name="MAGPOS">      0.00000000      0.00000000      0.00000000</v>
   <i type="logical" name="LNICSALL"> T  </i>
   <i type="logical" name="ORBITALMAG"> F  </i>
   <i type="logical" name="LMAGBLOCH"> F  </i>
   <i type="logical" name="LCHIMAG"> F  </i>
   <i type="logical" name="LGAUGE"> T  </i>
   <i type="int" name="MAGATOM">     0</i>
   <v name="MAGDIPOL">      0.00000000      0.00000000      0.00000000</v>
   <v name="AVECCONST">      0.00000000      0.00000000      0.00000000</v>
  </separator>
  <separator name="response functions" >
   <i type="logical" name="LADDER"> F  </i>
   <i type="logical" name="LRPAFORCE"> F  </i>
   <i type="logical" name="LFXC"> F  </i>
   <i type="logical" name="LHARTREE"> T  </i>
   <i type="int" name="IBSE">     0</i>
   <v type="int" name="KPOINT">    -1     0     0     0</v>
   <i type="logical" name="LTCTE"> F  </i>
   <i type="logical" name="LTETE"> F  </i>
   <i type="logical" name="LTRIPLET"> F  </i>
   <i type="logical" name="LFXCEPS"> F  </i>
   <i type="logical" name="LFXHEG"> F  </i>
   <i type="int" name="NATURALO">     2</i>
   <i type="logical" name="L2ORDER"> F  </i>
   <i type="logical" name="LMP2LT"> F  </i>
   <i type="logical" name="LUSEW"> F  </i>
   <i name="ENCUTGW">     -2.00000000</i>
   <i name="ENCUTGWSOFT">     -2.00000000</i>
   <i name="ENCUTLF">     -1.00000000</i>
   <i type="int" name="LMAXMP2">    -1</i>
   <i name="SCISSOR">      0.00000000</i>
   <i type="int" name="NOMEGA">     0</i>
   <i type="int" name="NOMEGAR">     0</i>
   <i type="int" name="NBANDSGW">    -1</i>
   <i type="int" name="NBANDSO">    -1</i>
   <i type="int" name="NBANDSV">    -1</i>
   <i type="int" name="NELM">   120</i>
   <i type="int" name="NELMHF">     1</i>
   <i type="int" name="DIM">     3</i>
   <i type="int" name="ANTIRES">     0</i>
   <i name="OMEGAMAX">    -30.00000000</i>
   <i name="OMEGAMIN">    -30.00000000</i>
   <i name="OMEGATL">   -200.00000000</i>
   <i type="int" name="OMEGAGRID">   140</i>
   <i name="CSHIFT">     -0.10000000</i>
   <i type="logical" name="SELFENERGY"> F  </i>
   <i type="logical" name="LSPECTRAL"> F  </i>
   <i type="logical" name="LSPECTRALGW"> F  </i>
   <i type="logical" name="LSINGLES"> F  </i>
   <i type="logical" name="LFERMIGW"> F  </i>
   <i type="logical" name="ODDONLYGW"> F  </i>
   <i type="logical" name="EVENONLYGW"> F  </i>
   <i type="int" name="NKREDLFX">     1</i>
   <i type="int" name="NKREDLFY">     1</i>
   <i type="int" name="NKREDLFZ">     1</i>
   <i type="int" name="MAXMEM">  2800</i>
   <i type="int" name="TELESCOPE">     0</i>
   <i type="int" name="TAUPAR">     1</i>
   <i type="int" name="OMEGAPAR">    -1</i>
   <i name="LAMBDA">      1.00000000</i>
  </separator>
  <separator name="External order field" >
   <i name="OFIELD_KAPPA">      0.00000000</i>
   <v name="OFIELD_K">      0.00000000      0.00000000      0.00000000</v>
   <i name="OFIELD_Q6_NEAR">      0.00000000</i>
   <i name="OFIELD_Q6_FAR">      0.00000000</i>
   <i name="OFIELD_A">      0.00000000</i>
  </separator>
 </parameters>
 <atominfo>
  <atoms>       2 </atoms>
  <types>       1 </types>
  <array name="atoms" >
   <dimension dim="1">ion</dimension>
   <field type="string">element</field>
   <field type="int">atomtype</field>
   <set>
    <rc><c>Si</c><c>   1</c></rc>
    <rc><c>Si</c><c>   1</c></rc>
   </set>
  </array>
  <array name="atomtypes" >
   <dimension dim="1">type</dimension>
   <field type="int">atomspertype</field>
   <field type="string">element</field>
   <field>mass</field>
   <field>valence</field>
   <field type="string">pseudopotential</field>
   <set>
    <rc><c>   2</c><c>Si</c><c>     28.08500000</c><c>      4.00000000</c><c>  PAW_PBE Si 05Jan2001                  </c></rc>
   </set>
  </array>
 </atominfo>
 <structure name="initialpos" >
  <crystal>
   <varray name="basis" >
    <v>       0.00000000       2.71550000       2.71550000 </v>
    <v>       2.71550000       0.00000000       2.71550000 </v>
    <v>       2.71550000       2.71550000       0.00000000 </v>
   </varray>
   <i name="volume">     40.04786950 </i>
   <varray name="rec_basis" >
    <v>      -0.18412815       0.18412815       0.18412815 </v>
    <v>       0.18412815      -0.18412815       0.18412815 </v>
    <v>       0.18412815       0.18412815      -0.18412815 </v>
   </varray>
  </crystal>
  <varray name="positions" >
   <v>       0.00000000       0.00000000       0.00000000 </v>
   <v>       0.25000000       0.25000000       0.25000000 </v>
  </varray>
 </structure>
 <calculation>
  <scstep>
   <time name="total">    0.07    0.07</time>
   <energy>
    <i name="alphaZ">      3.36228930 </i>
    <i name="ewald">   -228.52143995 </i>
    <i name="hartreedc">    -15.72834075 </i>
    <i name="XCdc">    -14.35234648 </i>
    <i name="pawpsdc">    931.52692635 </i>
    <i name="pawaedc">   -903.93356663 </i>
    <i name="eentropy">     -0.00000000 </i>
    <i name="bandstr">      0.28934187 </i>
    <i name="atom">    203.99651003 </i>
    <i name="e_fr_energy">    -11.97340097 </i>
    <i name="e_wo_entrp">    -11.97340097 </i>
    <i name="e_0_energy">    -11.97340097 </i>
   </energy>
  </scstep>
  <scstep>
   <time name="total">    0.06    0.06</time>
   <energy>
    <i name="e_fr_energy">    -11.99501317 </i>
    <i name="e_wo_entrp">    -11.99501317 </i>
    <i name="e_0_energy">    -11.99501317 </i>
   </energy>
  </scstep>
  <scstep>
   <time name="total">    0.06    0.06</time>
   <energy>
    <i name="e_fr_energy">    -12.00761145 </i>
    <i name="e_wo_entrp">    -12.00761145 </i>
    <i name="e_0_energy">    -12.00761145 </i>
   </energy>
  </scstep>
  <scstep>
   <time name="total">    0.06    0.06</time>
   <energy>
    <i name="e_fr_energy">    -12.01217429 </i>
    <i name="e_wo_entrp">    -12.01217429 </i>
    <i name="e_0_energy">    -12.01217429 </i>
   </energy>
  </scstep>
  <scstep>
   <time name="total">    0.06    0.06</time>
   <energy>
    <i name="e_fr_energy">    -12.01388993 </i>
    <i name="e_wo_entrp">    -12.01388993 </i>
    <i name="e_0_energy">    -12.01388993 </i>
   </energy>
  </scstep>
  <scstep>
   <time name="total">    0.06    0.06</time>
   <energy>
    <i name="e_fr_energy">    -12.01460553 </i>
    <i name="e_wo_entrp">    -12.01460553 </i>
    <i name="e_0_energy">    -12.01460553 </i>
   </energy>
  </scstep>
  <scstep>
   <time name="total">    0.06    0.06</time>
   <energy>
    <i name="e_fr_energy">    -12.01491898 </i>
    <i name="e_wo_entrp">    -12.01491898 </i>
    <i name="e_0_energy">    -12.01491898 </i>
   </energy>
  </scstep>
  <scstep>
   <time name="total">    0.06    0.06</time>
   <energy>
    <i name="e_fr_energy">    -12.01506313 </i>
    <i name="e_wo_entrp">    -12.01506313 </i>
    <i name="e_0_energy">    -12.01506313 </i>
   </energy>
  </scstep>
  <scstep>
   <time name="total">    0.06    0.06</time>
   <energy>
    <i name="e_fr_energy">    -12.01513043 </i>
    <i name="e_wo_entrp">    -12.01513043 </i>
    <i name="e_0_energy">    -12.01513043 </i>
   </energy>
  </scstep>
  <scstep>
   <time name="total">    0.06    0.06</time>
   <energy>
    <i name="e_fr_energy">    -12.01516083 </i>
    <i name="e_wo_entrp">    -12.01516083 </i>
    <i name="e_0_energy">    -12.01516083 </i>
   </energy>
  </scstep>
  <scstep>
   <time name="total">    0.06    0.06</time>
   <energy>
    <i name="e_fr_energy">    -12.01517421 </i>
    <i name="e_wo_entrp">    -12.01517421 </i>
    <i name="e_0_energy">    -12.01517421 </i>
   </energy>
  </scstep>
  <scstep>
   <time name="total">    0.06    0.06</time>
   <energy>
    <i name="e_fr_energy">    -12.01518055 </i>
    <i name="e_wo_entrp">    -12.01518055 </i>
    <i name="e_0_energy">    -12.01518055 </i>
   </energy>
  </scstep>
  <scstep>
   <time name="total">    0.06    0.06</time>
   <energy>
    <i name="e_fr_energy">    -12.01518389 </i>
    <i name="e_wo_entrp">    -12.01518389 </i>
    <i name="e_0_energy">    -12.01518389 </i>
   </energy>
  </scstep>
  <scstep>
   <time name="total">    0.06    0.06</time>
   <energy>
    <i name="e_fr_energy">    -12.01518577 </i>
    <i name="e_wo_entrp">    -12.01518577 </i>
    <i name="e_0_energy">    -12.01518577 </i>
   </energy>
  </scstep>
  <scstep>
   <time name="total">    0.06    0.06</time>
   <energy>
    <i name="e_fr_energy">    -12.01518693 </i>
    <i name="e_wo_entrp">    -12.01518693 </i>
    <i name="e_0_energy">    -12.01518693 </i>
   </energy>
  </scstep>
  <scstep>
   <time name="total">    0.09    0.09</time>
   <energy>
    <i name="alphaZ">      3.36228930 </i>
    <i name="ewald">   -228.52143995 </i>
    <i name="hartreedc">    -15.76281854 </i>
    <i name="XCdc">    -14.30581443 </i>
    <i name="pawpsdc">   1765.92284714 </i>
    <i name="pawaedc">  -1738.30806852 </i>
    <i name="eentropy">     -0.00000000 </i>
    <i name="bandstr">      0.15953010 </i>
    <i name="atom">    203.99651003 </i>
    <i name="e_fr_energy">    -12.01518769 </i>
    <i name="e_wo_entrp">    -12.01518769 </i>
    <i name="e_0_energy">    -12.01518769 </i>
   </energy>
  </scstep>
  <structure>
   <crystal>
    <varray name="basis" >
     <v>       0.00000000       2.71550000       2.71550000 </v>
     <v>       2.71550000       0.00000000       2.71550000 </v>
     <v>       2.71550000       2.71550000       0.00000000 </v>
    </varray>
    <i name="volume">     40.04786950 </i>
    <varray name="rec_basis" >
     <v>      -0.18412815       0.18412815       0.18412815 </v>
     <v>       0.18412815      -0.18412815       0.18412815 </v>
     <v>       0.18412815       0.18412815      -0.18412815 </v>
    </varray>
   </crystal>
   <varray name="positions" >
    <v>       0.00000000       0.00000000       0.00000000 </v>
    <v>       0.25000000       0.25000000       0.25000000 </v>
   </varray>
  </structure>
  <varray name="forces" >
   <v>       0.00000000      -0.00000000       0.00000000 </v>
   <v>      -0.00000000       0.00000000      -0.00000000 </v>
  </varray>
  <energy>
   <i name="e_fr_energy">    -12.01518769 </i>
   <i name="e_wo_entrp">    -12.01518769 </i>
   <i name="e_0_energy">     -0.00000000 </i>
  </energy>
  <time name="totalsc">    1.05    1.05</time>
  <eigenvalues>
   <array>
    <dimension dim="1">band</dimension>
    <dimension dim="2">kpoint</dimension>
    <dimension dim="3">spin</dimension>
    <field>eigene</field>
    <field>occ</field>
    <set>
     <set comment="spin 1">
      <set comment="kpoint 1">
       <r>   -7.7366    1.0000 </r>
       <r>    5.4715    1.0000 </r>
       <r>    5.4715    1.0000 </r>
       <r>    5.4715    1.0000 </r>
       <r>    8.9006    0.0000 </r>
       <r>    8.9006    0.0000 </r>
       <r>    8.9006    0.0000 </r>
       <r>    9.9795    0.0000 </r>
      </set>
      <set comment="kpoint 2">
       <r>   -6.2086    1.0000 </r>
       <r>   -0.3203    1.0000 </r>
       <r>    4.4000    1.0000 </r>
       <r>    4.4000    1.0000 </r>
       <r>    8.1132    0.0000 </r>
       <r>    9.8878    0.0000 </r>
       <r>    9.8878    0.0000 </r>
       <r>   14.4296    0.0000 </r>
      </set>
      <set comment="kpoint 3">
       <r>   -5.6203    1.0000 </r>
       <r>    0.0439    1.0000 </r>
       <r>    2.8508    1.0000 </r>
       <r>    2.8508    1.0000 </r>
       <r>    6.9175    0.0000 </r>
       <r>    8.2525    0.0000 </r>
       <r>   13.9454    0.0000 </r>
       <r>   13.9454    0.0000 </r>
      </set>
      <set comment="kpoint 4">
       <r>   -4.1041    1.0000 </r>
       <r>   -1.9418    1.0000 </r>
       <r>    0.7367    1.0000 </r>
       <r>    3.1889    1.0000 </r>
       <r>    7.8164    0.0000 </r>
       <r>   12.2469    0.0000 </r>
       <r>   13.1161    0.0000 </r>
       <r>   13.7368    0.0000 </r>
      </set>
     </set>
    </set>
   </array>
  </eigenvalues>
  <separator name="orbital magnetization" >
   <v name="MAGDIPOLOUT">      0.00000000      0.00000000      0.00000000</v>
  </separator>
  <dos>
   <i name="efermi">      5.70855991 </i>
   <total>
    <array>
     <dimension dim="1">gridpoints</dimension>
     <dimension dim="2">spin</dimension>
     <field>energy</field>
     <field>total</field>
     <field>integrated</field>
     <set>
      <set comment="spin 1">
       <r>    -8.8449     0.0000     0.0000 </r>
       <r>    -8.7636     0.0000     0.0000 </r>
       <r>    -8.6824     0.0000     0.0000 </r>
       <r>    -8.6011     0.0000     0.0000 </r>
       <r>    -8.5198     0.0000     0.0000 </r>
       <r>    -8.4385     0.0000     0.0000 </r>
       <r>    -8.3573     0.0000     0.0000 </r>
       <r>    -8.2760     0.0000     0.0000 </r>
       <r>    -8.1947     0.0000     0.0000 </r>
       <r>    -8.1134     0.0000     0.0000 </r>
       <r>    -8.0322     0.0000     0.0000 </r>
       <r>    -7.9509     0.0000     0.0000 </r>
       <r>    -7.8696     0.0001     0.0000 </r>
       <r>    -7.7883     0.0653     0.0053 </r>
       <r>    -7.7071     0.6623     0.0591 </r>
       <r>    -7.6258     0.1829     0.0740 </r>
       <r>    -7.5445     0.0008     0.0741 </r>
       <r>    -7.4632     0.0000     0.0741 </r>
       <r>    -7.3820     0.0000     0.0741 </r>
       <r>    -7.3007     0.0000     0.0741 </r>
       <r>    -7.2194     0.0000     0.0741 </r>
       <r>    -7.1381     0.0000     0.0741 </r>
       <r>    -7.0568     0.0000     0.0741 </r>
       <r>    -6.9756     0.0000     0.0741 </r>
       <r>    -6.8943     0.0000     0.0741 </r>
       <r>    -6.8130     0.0000     0.0741 </r>
       <r>    -6.7317     0.0000     0.0741 </r>
       <r>    -6.6505     0.0000     0.0741 </r>
       <r>    -6.5692     0.0000     0.0741 </r>
       <r>    -6.4879     0.0000     0.0741 </r>
       <r>    -6.4066     0.0000     0.0741 </r>
       <r>    -6.3254     0.0035     0.0744 </r>
       <r>    -6.2441     1.1481     0.1677 </r>
       <r>    -6.1628     5.4286     0.6089 </r>
       <r>    -6.0815     0.7097     0.6666 </r>
       <r>    -6.0003     0.0012     0.6667 </r>
       <r>    -5.9190     0.0000     0.6667 </r>
       <r>    -5.8377     0.0000     0.6667 </r>
       <r>    -5.7564     0.0003     0.6667 </r>
       <r>    -5.6752     0.3307     0.6936 </r>
       <r>    -5.5939     3.8957     1.0102 </r>
       <r>    -5.5126     1.2353     1.1106 </r>
       <r>    -5.4313     0.0063     1.1111 </r>
       <r>    -5.3501     0.0000     1.1111 </r>
       <r>    -5.2688     0.0000     1.1111 </r>
       <r>    -5.1875     0.0000     1.1111 </r>
       <r>    -5.1062     0.0000     1.1111 </r>
       <r>    -5.0249     0.0000     1.1111 </r>
       <r>    -4.9437     0.0000     1.1111 </r>
       <r>    -4.8624     0.0000     1.1111 </r>
       <r>    -4.7811     0.0000     1.1111 </r>
       <r>    -4.6998     0.0000     1.1111 </r>
       <r>    -4.6186     0.0000     1.1111 </r>
       <r>    -4.5373     0.0000     1.1111 </r>
       <r>    -4.4560     0.0000     1.1111 </r>
       <r>    -4.3747     0.0000     1.1111 </r>
       <r>    -4.2935     0.0000     1.1111 </r>
       <r>    -4.2122     0.0122     1.1121 </r>
       <r>    -4.1309     2.4391     1.3103 </r>
       <r>    -4.0496     7.8104     1.9451 </r>
       <r>    -3.9684     0.6743     1.9999 </r>
       <r>    -3.8871     0.0007     2.0000 </r>
       <r>    -3.8058     0.0000     2.0000 </r>
       <r>    -3.7245     0.0000     2.0000 </r>
       <r>    -3.6433     0.0000     2.0000 </r>
       <r>    -3.5620     0.0000     2.0000 </r>
       <r>    -3.4807     0.0000     2.0000 </r>
       <r>    -3.3994     0.0000     2.0000 </r>
       <r>    -3.3182     0.0000     2.0000 </r>
       <r>    -3.2369     0.0000     2.0000 </r>
       <r>    -3.1556     0.0000     2.0000 </r>
       <r>    -3.0743     0.0000     2.0000 </r>
       <r>    -2.9930     0.0000     2.0000 </r>
       <r>    -2.9118     0.0000     2.0000 </r>
       <r>    -2.8305     0.0000     2.0000 </r>
       <r>    -2.7492     0.0000     2.0000 </r>
       <r>    -2.6679     0.0000     2.0000 </r>
       <r>    -2.5867     0.0000     2.0000 </r>
       <r>    -2.5054     0.0000     2.0000 </r>
       <r>    -2.4241     0.0000     2.0000 </r>
       <r>    -2.3428     0.0000     2.0000 </r>
       <r>    -2.2616     0.0000     2.0000 </r>
       <r>    -2.1803     0.0000     2.0000 </r>
       <r>    -2.0990     0.0000     2.0000 </r>
       <r>    -2.0177     0.1735     2.0141 </r>
       <r>    -1.9365     5.9517     2.4978 </r>
       <r>    -1.8552     4.7333     2.8825 </r>
       <r>    -1.7739     0.0781     2.8889 </r>
       <r>    -1.6926     0.0000     2.8889 </r>
       <r>    -1.6114     0.0000     2.8889 </r>
       <r>    -1.5301     0.0000     2.8889 </r>
       <r>    -1.4488     0.0000     2.8889 </r>
       <r>    -1.3675     0.0000     2.8889 </r>
       <r>    -1.2863     0.0000     2.8889 </r>
       <r>    -1.2050     0.0000     2.8889 </r>
       <r>    -1.1237     0.0000     2.8889 </r>
       <r>    -1.0424     0.0000     2.8889 </r>
       <r>    -0.9612     0.0000     2.8889 </r>
       <r>    -0.8799     0.0000     2.8889 </r>
       <r>    -0.7986     0.0000     2.8889 </r>
       <r>    -0.7173     0.0000     2.8889 </r>
       <r>    -0.6360     0.0000     2.8889 </r>
       <r>    -0.5548     0.0000     2.8889 </r>
       <r>    -0.4735     0.0001     2.8889 </r>
       <r>    -0.3922     0.1530     2.9013 </r>
       <r>    -0.3109     4.2546     3.2471 </r>
       <r>    -0.2297     2.8458     3.4784 </r>
       <r>    -0.1484     0.0377     3.4815 </r>
       <r>    -0.0671     0.0046     3.4819 </r>
       <r>     0.0142     1.0907     3.5705 </r>
       <r>     0.0954     3.9772     3.8938 </r>
       <r>     0.1767     0.3953     3.9259 </r>
       <r>     0.2580     0.0005     3.9259 </r>
       <r>     0.3393     0.0000     3.9259 </r>
       <r>     0.4205     0.0000     3.9259 </r>
       <r>     0.5018     0.0000     3.9259 </r>
       <r>     0.5831     0.0001     3.9259 </r>
       <r>     0.6644     0.2229     3.9440 </r>
       <r>     0.7456     6.3376     4.4591 </r>
       <r>     0.8269     4.3175     4.8101 </r>
       <r>     0.9082     0.0586     4.8148 </r>
       <r>     0.9895     0.0000     4.8148 </r>
       <r>     1.0707     0.0000     4.8148 </r>
       <r>     1.1520     0.0000     4.8148 </r>
       <r>     1.2333     0.0000     4.8148 </r>
       <r>     1.3146     0.0000     4.8148 </r>
       <r>     1.3959     0.0000     4.8148 </r>
       <r>     1.4771     0.0000     4.8148 </r>
       <r>     1.5584     0.0000     4.8148 </r>
       <r>     1.6397     0.0000     4.8148 </r>
       <r>     1.7210     0.0000     4.8148 </r>
       <r>     1.8022     0.0000     4.8148 </r>
       <r>     1.8835     0.0000     4.8148 </r>
       <r>     1.9648     0.0000     4.8148 </r>
       <r>     2.0461     0.0000     4.8148 </r>
       <r>     2.1273     0.0000     4.8148 </r>
       <r>     2.2086     0.0000     4.8148 </r>
       <r>     2.2899     0.0000     4.8148 </r>
       <r>     2.3712     0.0000     4.8148 </r>
       <r>     2.4524     0.0000     4.8148 </r>
       <r>     2.5337     0.0000     4.8148 </r>
       <r>     2.6150     0.0000     4.8148 </r>
       <r>     2.6963     0.0001     4.8148 </r>
       <r>     2.7775     0.2095     4.8318 </r>
       <r>     2.8588     6.2426     5.3392 </r>
       <r>     2.9401     4.4215     5.6986 </r>
       <r>     3.0214     0.0630     5.7037 </r>
       <r>     3.1026     0.0801     5.7102 </r>
       <r>     3.1839     4.7709     6.0980 </r>
       <r>     3.2652     5.9160     6.5788 </r>
       <r>     3.3465     0.1696     6.5926 </r>
       <r>     3.4278     0.0000     6.5926 </r>
       <r>     3.5090     0.0000     6.5926 </r>
       <r>     3.5903     0.0000     6.5926 </r>
       <r>     3.6716     0.0000     6.5926 </r>
       <r>     3.7529     0.0000     6.5926 </r>
       <r>     3.8341     0.0000     6.5926 </r>
       <r>     3.9154     0.0000     6.5926 </r>
       <r>     3.9967     0.0000     6.5926 </r>
       <r>     4.0780     0.0000     6.5926 </r>
       <r>     4.1592     0.0000     6.5926 </r>
       <r>     4.2405     0.0000     6.5926 </r>
       <r>     4.3218     0.1970     6.6086 </r>
       <r>     4.4031     7.6037     7.2266 </r>
       <r>     4.4843     6.6574     7.7677 </r>
       <r>     4.5656     0.1240     7.7778 </r>
       <r>     4.6469     0.0000     7.7778 </r>
       <r>     4.7282     0.0000     7.7778 </r>
       <r>     4.8094     0.0000     7.7778 </r>
       <r>     4.8907     0.0000     7.7778 </r>
       <r>     4.9720     0.0000     7.7778 </r>
       <r>     5.0533     0.0000     7.7778 </r>
       <r>     5.1345     0.0000     7.7778 </r>
       <r>     5.2158     0.0000     7.7778 </r>
       <r>     5.2971     0.0000     7.7778 </r>
       <r>     5.3784     0.0115     7.7787 </r>
       <r>     5.4597     0.9969     7.8597 </r>
       <r>     5.5409     1.6580     7.9945 </r>
       <r>     5.6222     0.0677     8.0000 </r>
       <r>     5.7035     0.0000     8.0000 </r>
       <r>     5.7848     0.0000     8.0000 </r>
       <r>     5.8660     0.0000     8.0000 </r>
       <r>     5.9473     0.0000     8.0000 </r>
       <r>     6.0286     0.0000     8.0000 </r>
       <r>     6.1099     0.0000     8.0000 </r>
       <r>     6.1911     0.0000     8.0000 </r>
       <r>     6.2724     0.0000     8.0000 </r>
       <r>     6.3537     0.0000     8.0000 </r>
       <r>     6.4350     0.0000     8.0000 </r>
       <r>     6.5162     0.0000     8.0000 </r>
       <r>     6.5975     0.0000     8.0000 </r>
       <r>     6.6788     0.0000     8.0000 </r>
       <r>     6.7601     0.0000     8.0000 </r>
       <r>     6.8413     0.0854     8.0069 </r>
       <r>     6.9226     2.9639     8.2478 </r>
       <r>     7.0039     2.3792     8.4412 </r>
       <r>     7.0852     0.0397     8.4444 </r>
       <r>     7.1664     0.0000     8.4444 </r>
       <r>     7.2477     0.0000     8.4444 </r>
       <r>     7.3290     0.0000     8.4444 </r>
       <r>     7.4103     0.0000     8.4444 </r>
       <r>     7.4916     0.0000     8.4444 </r>
       <r>     7.5728     0.0000     8.4444 </r>
       <r>     7.6541     0.0000     8.4444 </r>
       <r>     7.7354     0.1202     8.4542 </r>
       <r>     7.8167     5.3836     8.8918 </r>
       <r>     7.8979     5.3177     9.3240 </r>
       <r>     7.9792     0.1157     9.3334 </r>
       <r>     8.0605     0.4964     9.3737 </r>
       <r>     8.1418     5.2736     9.8023 </r>
       <r>     8.2230     2.6184    10.0152 </r>
       <r>     8.3043     3.9793    10.3386 </r>
       <r>     8.3856     0.3908    10.3703 </r>
       <r>     8.4669     0.0005    10.3704 </r>
       <r>     8.5481     0.0000    10.3704 </r>
       <r>     8.6294     0.0000    10.3704 </r>
       <r>     8.7107     0.0000    10.3704 </r>
       <r>     8.7920     0.0029    10.3706 </r>
       <r>     8.8732     0.5966    10.4191 </r>
       <r>     8.9545     1.9604    10.5784 </r>
       <r>     9.0358     0.1741    10.5926 </r>
       <r>     9.1171     0.0002    10.5926 </r>
       <r>     9.1983     0.0000    10.5926 </r>
       <r>     9.2796     0.0000    10.5926 </r>
       <r>     9.3609     0.0000    10.5926 </r>
       <r>     9.4422     0.0000    10.5926 </r>
       <r>     9.5235     0.0000    10.5926 </r>
       <r>     9.6047     0.0000    10.5926 </r>
       <r>     9.6860     0.0000    10.5926 </r>
       <r>     9.7673     0.0048    10.5930 </r>
       <r>     9.8486     1.9438    10.7510 </r>
       <r>     9.9298    10.9982    11.6449 </r>
       <r>    10.0111     2.3738    11.8378 </r>
       <r>    10.0924     0.1724    11.8518 </r>
       <r>    10.1737     0.0006    11.8519 </r>
       <r>    10.2549     0.0000    11.8519 </r>
       <r>    10.3362     0.0000    11.8519 </r>
       <r>    10.4175     0.0000    11.8519 </r>
       <r>    10.4988     0.0000    11.8519 </r>
       <r>    10.5800     0.0000    11.8519 </r>
       <r>    10.6613     0.0000    11.8519 </r>
       <r>    10.7426     0.0000    11.8519 </r>
       <r>    10.8239     0.0000    11.8519 </r>
       <r>    10.9051     0.0000    11.8519 </r>
       <r>    10.9864     0.0000    11.8519 </r>
       <r>    11.0677     0.0000    11.8519 </r>
       <r>    11.1490     0.0000    11.8519 </r>
       <r>    11.2302     0.0000    11.8519 </r>
       <r>    11.3115     0.0000    11.8519 </r>
       <r>    11.3928     0.0000    11.8519 </r>
       <r>    11.4741     0.0000    11.8519 </r>
       <r>    11.5554     0.0000    11.8519 </r>
       <r>    11.6366     0.0000    11.8519 </r>
       <r>    11.7179     0.0000    11.8519 </r>
       <r>    11.7992     0.0000    11.8519 </r>
       <r>    11.8805     0.0000    11.8519 </r>
       <r>    11.9617     0.0000    11.8519 </r>
       <r>    12.0430     0.0000    11.8519 </r>
       <r>    12.1243     0.0029    11.8521 </r>
       <r>    12.2056     1.3239    11.9597 </r>
       <r>    12.2868     8.1974    12.6259 </r>
       <r>    12.3681     1.4092    12.7405 </r>
       <r>    12.4494     0.0033    12.7407 </r>
       <r>    12.5307     0.0000    12.7407 </r>
       <r>    12.6119     0.0000    12.7407 </r>
       <r>    12.6932     0.0000    12.7407 </r>
       <r>    12.7745     0.0000    12.7407 </r>
       <r>    12.8558     0.0000    12.7407 </r>
       <r>    12.9370     0.0000    12.7407 </r>
       <r>    13.0183     0.0312    12.7433 </r>
       <r>    13.0996     3.4760    13.0258 </r>
       <r>    13.1809     7.0643    13.5999 </r>
       <r>    13.2621     0.3651    13.6296 </r>
       <r>    13.3434     0.0002    13.6296 </r>
       <r>    13.4247     0.0000    13.6296 </r>
       <r>    13.5060     0.0000    13.6296 </r>
       <r>    13.5873     0.0001    13.6296 </r>
       <r>    13.6685     0.2917    13.6533 </r>
       <r>    13.7498     6.7419    14.2013 </r>
       <r>    13.8311     3.8677    14.5156 </r>
       <r>    13.9124     1.9523    14.6743 </r>
       <r>    13.9936     8.0783    15.3309 </r>
       <r>    14.0749     0.9400    15.4073 </r>
       <r>    14.1562     0.0014    15.4074 </r>
       <r>    14.2375     0.0000    15.4074 </r>
       <r>    14.3187     0.0063    15.4079 </r>
       <r>    14.4000     1.4636    15.5269 </r>
       <r>    14.4813     5.2981    15.9575 </r>
       <r>    14.5626     0.5225    16.0000 </r>
       <r>    14.6438     0.0006    16.0000 </r>
       <r>    14.7251     0.0000    16.0000 </r>
       <r>    14.8064     0.0000    16.0000 </r>
       <r>    14.8877     0.0000    16.0000 </r>
       <r>    14.9689     0.0000    16.0000 </r>
       <r>    15.0502     0.0000    16.0000 </r>
       <r>    15.1315     0.0000    16.0000 </r>
       <r>    15.2128     0.0000    16.0000 </r>
       <r>    15.2940     0.0000    16.0000 </r>
       <r>    15.3753     0.0000    16.0000 </r>
       <r>    15.4566     0.0000    16.0000 </r>
       <r>    15.5379     0.0000    16.0000 </r>
      </set>
     </set>
    </array>
   </total>
  </dos>
 </calculation>
 <structure name="finalpos" >
  <crystal>
   <varray name="basis" >
    <v>       0.00000000       2.71550000       2.71550000 </v>
    <v>       2.71550000       0.00000000       2.71550000 </v>
    <v>       2.71550000       2.71550000       0.00000000 </v>
   </varray>
   <i name="volume">     40.04786950 </i>
   <varray name="rec_basis" >
    <v>      -0.18412815       0.18412815       0.18412815 </v>
    <v>       0.18412815      -0.18412815       0.18412815 </v>
    <v>       0.18412815       0.18412815      -0.18412815 </v>
   </varray>
  </crystal>
  <varray name="positions" >
   <v>       0.00000000       0.00000000       0.00000000 </v>
   <v>       0.25000000       0.25000000       0.25000000 </v>
  </varray>
 </structure>
</modeling>
