    2    2    1    1
  0.2002393E+02  0.3840297E-09  0.3840297E-09  0.3840297E-09  0.5000000E-15
  1.000000000000000E-004
  CAR 
 Si-HSE06-gamma-vasp  (HSE06)            
      8      1      8
 
  0.0000000E+00  0.0000000E+00  0.0000000E+00  0.1000000E+01
    1       -6.918012   1.000000
    2        5.542589   1.000000
    3        5.542589   1.000000
    4        5.542591   1.000000
    5        9.945596   0.000000
    6        9.945596   0.000000
    7        9.945597   0.000000
    8       11.271087   0.000000
