       N       E                     dE             d eps       ncg     rms          ort
SDA:   1     0.309437854843E+01    0.30944E+01   -0.19689E-01     8   0.492E-01 0.000E+00
DMP:   2     0.307873341772E+01   -0.15645E-01   -0.11928E-01     8   0.187E-01 0.290E-01
DMP:   3     0.307015487999E+01   -0.85785E-02   -0.38222E-02     8   0.456E-02 0.131E-01
DMP:   4     0.306761660909E+01   -0.25383E-02   -0.85143E-03     8   0.937E-03 0.312E-02
DMP:   5     0.306711820857E+01   -0.49840E-03   -0.17779E-03     8   0.312E-03 0.348E-03
DMP:   6     0.306701559662E+01   -0.10261E-03   -0.88472E-04     8   0.198E-03 0.598E-04
DMP:   7     0.306695274108E+01   -0.62856E-04   -0.48795E-04     8   0.877E-04 0.899E-04
DMP:   8     0.306691785100E+01   -0.34890E-04   -0.26348E-04     8   0.458E-04 0.525E-04
DMP:   9     0.306689700588E+01   -0.20845E-04   -0.16763E-04     8   0.269E-04 0.392E-04
DMP:  10     0.306688390629E+01   -0.13100E-04   -0.83298E-05     8   0.114E-04 0.246E-04
DMP:  11     0.306687787436E+01   -0.60319E-05   -0.32440E-05     8   0.404E-05 0.107E-04
DMP:  12     0.306687582900E+01   -0.20454E-05   -0.95623E-06     8   0.109E-05 0.340E-05
DMP:  13     0.306687543129E+01   -0.39770E-06   -0.16046E-06     8   0.181E-06 0.576E-06
   1 F= 0.30668754E+01 E0= 0.30668754E+01  d E =-.116410E-10
