 running on   32 total cores
 distrk:  each k-point on   32 cores,    1 groups
 distr:  one band on    4 cores,    8 groups
 using from now: INCAR     
 vasp.5.4.4.18Apr17-6-g9f103f2a35 (build Mar 10 2026 18:18:58) gamma-only       
  
 POSCAR found type information on POSCAR  Si
 POSCAR found :  1 types and       2 ions
 scaLAPACK will be used
 LDA part: xc-table for Pade appr. of Perdew
 POSCAR, INCAR and KPOINTS ok, starting setup
 FFT: planning ...
 WAVECAR not read
 entering main loop
       N       E                     dE             d eps       ncg     rms          rms(c)
DAV:   1     0.299844958915E+02    0.29984E+02   -0.30725E+03    16   0.500E+02
DAV:   2     0.534910385045E+01   -0.24635E+02   -0.24635E+02    32   0.719E+01
DAV:   3     0.500588736702E+01   -0.34322E+00   -0.34322E+00    16   0.138E+01
DAV:   4     0.500365234399E+01   -0.22350E-02   -0.22350E-02    16   0.131E+00
DAV:   5     0.500361898182E+01   -0.33362E-04   -0.33362E-04    16   0.144E-01    0.822E+00
DAV:   6     0.578735481861E+01    0.78374E+00   -0.37583E-01    16   0.349E+00    0.512E+00
DAV:   7     0.617784105933E+01    0.39049E+00   -0.96824E-01    16   0.606E+00    0.497E-01
DAV:   8     0.616729542021E+01   -0.10546E-01   -0.96737E-03    16   0.705E-01    0.121E-01
DAV:   9     0.616522906832E+01   -0.20664E-02   -0.20324E-03    16   0.358E-01    0.103E-01
DAV:  10     0.616504747879E+01   -0.18159E-03   -0.38814E-04    16   0.137E-01    0.257E-02
DAV:  11     0.616504363038E+01   -0.38484E-05   -0.86386E-06    16   0.230E-02    0.487E-03
DAV:  12     0.616504320702E+01   -0.42336E-06   -0.26877E-07     8   0.416E-03
   1 F= 0.61650432E+01 E0= 0.61650432E+01  d E =-.184587E-11
 writing wavefunctions
