<?xml version="1.0" encoding="ISO-8859-1"?>
<modeling>
 <generator>
  <i name="program" type="string">vasp </i>
  <i name="version" type="string">5.4.4.18Apr17-6-g9f103f2a35  </i>
  <i name="subversion" type="string">(build Mar 10 2026 18:18:58) gamma-only         parallel </i>
  <i name="platform" type="string">LinuxIFC </i>
  <i name="date" type="string">2026 06 25 </i>
  <i name="time" type="string">15:59:46 </i>
 </generator>
 <incar>
  <i type="string" name="SYSTEM"> Si-HSE06-gamma-vasp  (HSE06)</i>
  <i type="int" name="ISTART">     1</i>
  <i type="string" name="PREC">accurate</i>
  <i type="string" name="ALGO"> Damped</i>
  <i type="int" name="ICHARG">     0</i>
  <i type="int" name="NELM">   120</i>
  <i name="EDIFF">      0.00000100</i>
  <i name="ENCUT">    320.00000000</i>
  <i type="logical" name="LREAL"> F  </i>
  <i name="TIME">      0.40000000</i>
  <i type="int" name="ISMEAR">     0</i>
  <i name="SIGMA">      0.05000000</i>
  <i type="logical" name="LWAVE"> F  </i>
  <i type="logical" name="LCHARG"> F  </i>
  <v type="int" name="KPOINT_BSE">    -1     0     0     0</v>
  <i type="int" name="NELM">   120</i>
  <i type="logical" name="LHFCALC"> T  </i>
  <i name="HFSCREEN">      0.20000000</i>
  <i name="AEXX">      0.25000000</i>
  <i type="string" name="PRECFOCK">fast</i>
 </incar>
 <structure name="primitive_cell" >
  <crystal>
   <varray name="basis" >
    <v>       0.00000000       2.71550000       2.71550000 </v>
    <v>       2.71550000       0.00000000       2.71550000 </v>
    <v>       2.71550000       2.71550000       0.00000000 </v>
   </varray>
   <i name="volume">     40.04786950 </i>
   <varray name="rec_basis" >
    <v>      -0.18412815       0.18412815       0.18412815 </v>
    <v>       0.18412815      -0.18412815       0.18412815 </v>
    <v>       0.18412815       0.18412815      -0.18412815 </v>
   </varray>
  </crystal>
  <varray name="positions" >
   <v>       0.00000000       0.00000000       0.00000000 </v>
   <v>       0.25000000       0.25000000       0.25000000 </v>
  </varray>
 </structure>
 <varray name="primitive_index" >
  <v type="int" >        1 </v>
  <v type="int" >        2 </v>
 </varray>
 <kpoints>
  <generation param="Gamma">
   <v type="int" name="divisions">       1        1        1 </v>
   <v name="usershift">      0.00000000       0.00000000       0.00000000 </v>
   <v name="genvec1">      1.00000000       0.00000000       0.00000000 </v>
   <v name="genvec2">      0.00000000       1.00000000       0.00000000 </v>
   <v name="genvec3">      0.00000000       0.00000000       1.00000000 </v>
   <v name="shift">      0.00000000       0.00000000       0.00000000 </v>
  </generation>
  <varray name="kpointlist" >
   <v>       0.00000000       0.00000000       0.00000000 </v>
  </varray>
  <varray name="weights" >
   <v>       1.00000000 </v>
  </varray>
 </kpoints>
 <parameters>
  <separator name="general" >
   <i type="string" name="SYSTEM">Si-HSE06-gamma-vasp  (HSE06)</i>
   <i type="logical" name="LCOMPAT"> F  </i>
  </separator>
  <separator name="electronic" >
   <i type="string" name="PREC">accura</i>
   <i name="ENMAX">    320.00000000</i>
   <i name="ENAUG">    322.06900000</i>
   <i name="EDIFF">      0.00000100</i>
   <i type="int" name="IALGO">    53</i>
   <i type="int" name="IWAVPR">    10</i>
   <i type="int" name="NBANDS">     8</i>
   <i name="NELECT">      8.00000000</i>
   <i type="int" name="TURBO">     0</i>
   <i type="int" name="IRESTART">     0</i>
   <i type="int" name="NREBOOT">     0</i>
   <i type="int" name="NMIN">     0</i>
   <i name="EREF">      0.00000000</i>
   <separator name="electronic smearing" >
    <i type="int" name="ISMEAR">     0</i>
    <i name="SIGMA">      0.05000000</i>
    <i name="KSPACING">      0.50000000</i>
    <i type="logical" name="KGAMMA"> T  </i>
   </separator>
   <separator name="electronic projectors" >
    <i type="logical" name="LREAL"> F  </i>
    <v name="ROPT">      0.00000000</v>
    <i type="int" name="LMAXPAW">  -100</i>
    <i type="int" name="LMAXMIX">     2</i>
    <i type="logical" name="NLSPLINE"> F  </i>
   </separator>
   <separator name="electronic startup" >
    <i type="int" name="ISTART">     1</i>
    <i type="int" name="ICHARG">     0</i>
    <i type="int" name="INIWAV">     1</i>
   </separator>
   <separator name="electronic spin" >
    <i type="int" name="ISPIN">     1</i>
    <i type="logical" name="LNONCOLLINEAR"> F  </i>
    <v name="MAGMOM">      1.00000000      1.00000000</v>
    <i name="NUPDOWN">     -1.00000000</i>
    <i type="logical" name="LSORBIT"> F  </i>
    <v name="SAXIS">      0.00000000      0.00000000      1.00000000</v>
    <i type="logical" name="LSPIRAL"> F  </i>
    <v name="QSPIRAL">      0.00000000      0.00000000      0.00000000</v>
    <i type="logical" name="LZEROZ"> F  </i>
   </separator>
   <separator name="electronic exchange-correlation" >
    <i type="logical" name="LASPH"> F  </i>
    <i type="logical" name="LMETAGGA"> F  </i>
   </separator>
   <separator name="electronic convergence" >
    <i type="int" name="NELM">   120</i>
    <i type="int" name="NELMDL">     0</i>
    <i type="int" name="NELMIN">     2</i>
    <i name="ENINI">    320.00000000</i>
    <separator name="electronic convergence detail" >
     <i type="logical" name="LDIAG"> T  </i>
     <i type="logical" name="LSUBROT"> F  </i>
     <i name="WEIMIN">      0.00000000</i>
     <i name="EBREAK">      0.00000003</i>
     <i name="DEPER">      0.30000000</i>
     <i type="int" name="NRMM">     4</i>
     <i name="TIME">      0.40000000</i>
    </separator>
   </separator>
   <separator name="electronic mixer" >
    <i name="AMIX">      0.40000000</i>
    <i name="BMIX">      1.00000000</i>
    <i name="AMIN">      0.10000000</i>
    <i name="AMIX_MAG">      1.60000000</i>
    <i name="BMIX_MAG">      1.00000000</i>
    <separator name="electronic mixer details" >
     <i type="int" name="IMIX">     4</i>
     <i type="logical" name="MIXFIRST"> F  </i>
     <i type="int" name="MAXMIX">   -45</i>
     <i name="WC">    100.00000000</i>
     <i type="int" name="INIMIX">     1</i>
     <i type="int" name="MIXPRE">     1</i>
     <i type="int" name="MREMOVE">     5</i>
    </separator>
   </separator>
   <separator name="electronic dipolcorrection" >
    <i type="logical" name="LDIPOL"> F  </i>
    <i type="logical" name="LMONO"> F  </i>
    <i type="int" name="IDIPOL">     0</i>
    <i name="EPSILON">      1.00000000</i>
    <v name="DIPOL">   -100.00000000   -100.00000000   -100.00000000</v>
    <i name="EFIELD">      0.00000000</i>
   </separator>
  </separator>
  <separator name="grids" >
   <i type="int" name="NGX">    24</i>
   <i type="int" name="NGY">    24</i>
   <i type="int" name="NGZ">    24</i>
   <i type="int" name="NGXF">    48</i>
   <i type="int" name="NGYF">    48</i>
   <i type="int" name="NGZF">    48</i>
   <i type="logical" name="ADDGRID"> F  </i>
  </separator>
  <separator name="ionic" >
   <i type="int" name="NSW">     0</i>
   <i type="int" name="IBRION">    -1</i>
   <i type="int" name="MDALGO">     0</i>
   <i type="int" name="ISIF">     0</i>
   <i name="PSTRESS">      0.00000000</i>
   <i name="EDIFFG">      0.00001000</i>
   <i type="int" name="NFREE">     0</i>
   <i name="POTIM">      0.50000000</i>
   <i name="SMASS">     -3.00000000</i>
   <i name="SCALEE">      1.00000000</i>
  </separator>
  <separator name="ionic md" >
   <i name="TEBEG">      0.00010000</i>
   <i name="TEEND">      0.00010000</i>
   <i type="int" name="NBLOCK">     1</i>
   <i type="int" name="KBLOCK">     1</i>
   <i type="int" name="NPACO">   256</i>
   <i name="APACO">     16.00000000</i>
  </separator>
  <separator name="symmetry" >
   <i type="int" name="ISYM">     3</i>
   <i name="SYMPREC">      0.00001000</i>
  </separator>
  <separator name="dos" >
   <i type="int" name="LORBIT">     0</i>
   <v name="RWIGS">     -1.00000000</v>
   <i type="int" name="NEDOS">   301</i>
   <i name="EMIN">     10.00000000</i>
   <i name="EMAX">    -10.00000000</i>
   <i name="EFERMI">      0.00000000</i>
  </separator>
  <separator name="writing" >
   <i type="int" name="NWRITE">     2</i>
   <i type="logical" name="LWAVE"> F  </i>
   <i type="logical" name="LDOWNSAMPLE"> F  </i>
   <i type="logical" name="LCHARG"> F  </i>
   <i type="logical" name="LPARD"> F  </i>
   <i type="logical" name="LVTOT"> F  </i>
   <i type="logical" name="LVHAR"> F  </i>
   <i type="logical" name="LELF"> F  </i>
   <i type="logical" name="LOPTICS"> F  </i>
   <v name="STM">      0.00000000      0.00000000      0.00000000      0.00000000      0.00000000      0.00000000      0.00000000</v>
  </separator>
  <separator name="performance" >
   <i type="int" name="NPAR">     8</i>
   <i type="int" name="NSIM">     4</i>
   <i type="int" name="NBLK">    -1</i>
   <i type="logical" name="LPLANE"> T  </i>
   <i type="logical" name="LSCALAPACK"> T  </i>
   <i type="logical" name="LSCAAWARE"> F  </i>
   <i type="logical" name="LSCALU"> F  </i>
   <i type="logical" name="LASYNC"> F  </i>
   <i type="logical" name="LORBITALREAL"> F  </i>
  </separator>
  <separator name="miscellaneous" >
   <i type="int" name="IDIOT">     3</i>
   <i type="int" name="ISPECIAL">     0</i>
   <i type="logical" name="LMUSIC"> F  </i>
   <v name="POMASS">     28.08500000</v>
   <v name="DARWINR">      0.00000000</v>
   <v name="DARWINV">      1.00000000</v>
   <i type="logical" name="LCORR"> T  </i>
  </separator>
  <i type="logical" name="GGA_COMPAT"> T  </i>
  <i type="logical" name="LBERRY"> F  </i>
  <i type="int" name="ICORELEVEL">     0</i>
  <i type="logical" name="LDAU"> F  </i>
  <i type="int" name="I_CONSTRAINED_M">     0</i>
  <separator name="electronic exchange-correlation" >
   <i type="string" name="GGA">--</i>
   <i type="int" name="VOSKOWN">     0</i>
   <i type="logical" name="LHFCALC"> T  </i>
   <i type="string" name="PRECFOCK">fast</i>
   <i type="logical" name="LSYMGRAD"> F  </i>
   <i type="logical" name="LHFONE"> F  </i>
   <i type="logical" name="LRHFCALC"> F  </i>
   <i type="logical" name="LTHOMAS"> F  </i>
   <i type="logical" name="LMODELHF"> F  </i>
   <i name="ENCUT4O">     -1.00000000</i>
   <i type="int" name="EXXOEP">     0</i>
   <i type="int" name="FOURORBIT">     0</i>
   <i name="AEXX">      0.25000000</i>
   <i name="HFALPHA">     -1.00000000</i>
   <i name="MCALPHA">      0.00000000</i>
   <i name="ALDAX">      0.75000000</i>
   <i name="AGGAX">      0.75000000</i>
   <i name="ALDAC">      1.00000000</i>
   <i name="AGGAC">      1.00000000</i>
   <i type="int" name="NKREDX">     1</i>
   <i type="int" name="NKREDY">     1</i>
   <i type="int" name="NKREDZ">     1</i>
   <i type="logical" name="SHIFTRED"> F  </i>
   <i type="logical" name="ODDONLY"> F  </i>
   <i type="logical" name="EVENONLY"> F  </i>
   <i type="int" name="LMAXFOCK">     4</i>
   <i type="int" name="NMAXFOCKAE">     1</i>
   <i type="logical" name="LFOCKAEDFT"> F  </i>
   <i name="HFSCREEN">      0.20000000</i>
   <i name="HFSCREENC">      0.20000000</i>
   <i type="int" name="NBANDSGWLOW">     1</i>
  </separator>
  <separator name="vdW DFT" >
   <i type="logical" name="LUSE_VDW"> F  </i>
   <i name="Zab_VDW">     -0.84910000</i>
   <i name="PARAM1">      0.12340000</i>
   <i name="PARAM2">      1.00000000</i>
   <i name="PARAM3">      0.00000000</i>
  </separator>
  <separator name="model GW" >
   <i type="int" name="MODEL_GW">     0</i>
   <i name="MODEL_EPS0">     12.01436085</i>
   <i name="MODEL_ALPHA">      1.00000000</i>
  </separator>
  <separator name="linear response parameters" >
   <i type="logical" name="LEPSILON"> F  </i>
   <i type="logical" name="LRPA"> F  </i>
   <i type="logical" name="LNABLA"> F  </i>
   <i type="logical" name="LVEL"> F  </i>
   <i type="int" name="KINTER">     0</i>
   <i name="CSHIFT">      0.10000000</i>
   <i name="OMEGAMAX">     -1.00000000</i>
   <i name="DEG_THRESHOLD">      0.00200000</i>
   <i name="RTIME">     -0.10000000</i>
   <i name="WPLASMAI">      0.00000000</i>
   <v name="DFIELD">      0.00000000      0.00000000      0.00000000</v>
   <v name="WPLASMA">      0.00000000      0.00000000      0.00000000      0.00000000      0.00000000      0.00000000      0.00000000      0.00000000      0.00000000</v>
  </separator>
  <separator name="orbital magnetization" >
   <i type="logical" name="NUCIND"> F  </i>
   <v name="MAGPOS">      0.00000000      0.00000000      0.00000000</v>
   <i type="logical" name="LNICSALL"> T  </i>
   <i type="logical" name="ORBITALMAG"> F  </i>
   <i type="logical" name="LMAGBLOCH"> F  </i>
   <i type="logical" name="LCHIMAG"> F  </i>
   <i type="logical" name="LGAUGE"> T  </i>
   <i type="int" name="MAGATOM">     0</i>
   <v name="MAGDIPOL">      0.00000000      0.00000000      0.00000000</v>
   <v name="AVECCONST">      0.00000000      0.00000000      0.00000000</v>
  </separator>
  <separator name="response functions" >
   <i type="logical" name="LADDER"> F  </i>
   <i type="logical" name="LRPAFORCE"> F  </i>
   <i type="logical" name="LFXC"> F  </i>
   <i type="logical" name="LHARTREE"> T  </i>
   <i type="int" name="IBSE">     0</i>
   <v type="int" name="KPOINT">    -1     0     0     0</v>
   <i type="logical" name="LTCTE"> F  </i>
   <i type="logical" name="LTETE"> F  </i>
   <i type="logical" name="LTRIPLET"> F  </i>
   <i type="logical" name="LFXCEPS"> F  </i>
   <i type="logical" name="LFXHEG"> F  </i>
   <i type="int" name="NATURALO">     2</i>
   <i type="logical" name="L2ORDER"> F  </i>
   <i type="logical" name="LMP2LT"> F  </i>
   <i type="logical" name="LUSEW"> F  </i>
   <i name="ENCUTGW">     -2.00000000</i>
   <i name="ENCUTGWSOFT">     -2.00000000</i>
   <i name="ENCUTLF">     -1.00000000</i>
   <i type="int" name="LMAXMP2">    -1</i>
   <i name="SCISSOR">      0.00000000</i>
   <i type="int" name="NOMEGA">     0</i>
   <i type="int" name="NOMEGAR">     0</i>
   <i type="int" name="NBANDSGW">    -1</i>
   <i type="int" name="NBANDSO">    -1</i>
   <i type="int" name="NBANDSV">    -1</i>
   <i type="int" name="NELM">   120</i>
   <i type="int" name="NELMHF">     1</i>
   <i type="int" name="DIM">     3</i>
   <i type="int" name="ANTIRES">     0</i>
   <i name="OMEGAMAX">    -30.00000000</i>
   <i name="OMEGAMIN">    -30.00000000</i>
   <i name="OMEGATL">   -200.00000000</i>
   <i type="int" name="OMEGAGRID">   140</i>
   <i name="CSHIFT">     -0.10000000</i>
   <i type="logical" name="SELFENERGY"> F  </i>
   <i type="logical" name="LSPECTRAL"> F  </i>
   <i type="logical" name="LSPECTRALGW"> F  </i>
   <i type="logical" name="LSINGLES"> F  </i>
   <i type="logical" name="LFERMIGW"> F  </i>
   <i type="logical" name="ODDONLYGW"> F  </i>
   <i type="logical" name="EVENONLYGW"> F  </i>
   <i type="int" name="NKREDLFX">     1</i>
   <i type="int" name="NKREDLFY">     1</i>
   <i type="int" name="NKREDLFZ">     1</i>
   <i type="int" name="MAXMEM">  2800</i>
   <i type="int" name="TELESCOPE">     0</i>
   <i type="int" name="TAUPAR">     1</i>
   <i type="int" name="OMEGAPAR">    -1</i>
   <i name="LAMBDA">      1.00000000</i>
  </separator>
  <separator name="External order field" >
   <i name="OFIELD_KAPPA">      0.00000000</i>
   <v name="OFIELD_K">      0.00000000      0.00000000      0.00000000</v>
   <i name="OFIELD_Q6_NEAR">      0.00000000</i>
   <i name="OFIELD_Q6_FAR">      0.00000000</i>
   <i name="OFIELD_A">      0.00000000</i>
  </separator>
 </parameters>
 <atominfo>
  <atoms>       2 </atoms>
  <types>       1 </types>
  <array name="atoms" >
   <dimension dim="1">ion</dimension>
   <field type="string">element</field>
   <field type="int">atomtype</field>
   <set>
    <rc><c>Si</c><c>   1</c></rc>
    <rc><c>Si</c><c>   1</c></rc>
   </set>
  </array>
  <array name="atomtypes" >
   <dimension dim="1">type</dimension>
   <field type="int">atomspertype</field>
   <field type="string">element</field>
   <field>mass</field>
   <field>valence</field>
   <field type="string">pseudopotential</field>
   <set>
    <rc><c>   2</c><c>Si</c><c>     28.08500000</c><c>      4.00000000</c><c>  PAW_PBE Si 05Jan2001                  </c></rc>
   </set>
  </array>
 </atominfo>
 <structure name="initialpos" >
  <crystal>
   <varray name="basis" >
    <v>       0.00000000       2.71550000       2.71550000 </v>
    <v>       2.71550000       0.00000000       2.71550000 </v>
    <v>       2.71550000       2.71550000       0.00000000 </v>
   </varray>
   <i name="volume">     40.04786950 </i>
   <varray name="rec_basis" >
    <v>      -0.18412815       0.18412815       0.18412815 </v>
    <v>       0.18412815      -0.18412815       0.18412815 </v>
    <v>       0.18412815       0.18412815      -0.18412815 </v>
   </varray>
  </crystal>
  <varray name="positions" >
   <v>       0.00000000       0.00000000       0.00000000 </v>
   <v>       0.25000000       0.25000000       0.25000000 </v>
  </varray>
 </structure>
 <calculation>
  <scstep>
   <time name="total">    0.04    0.04</time>
   <energy>
    <i name="alphaZ">      3.36228930 </i>
    <i name="ewald">   -228.52143995 </i>
    <i name="hartreedc">    -23.03538021 </i>
    <i name="XCdc">    -13.72890848 </i>
    <i name="pawpsdc">    908.79996668 </i>
    <i name="pawaedc">   -881.27055074 </i>
    <i name="eentropy">     -0.00000000 </i>
    <i name="bandstr">     19.73022368 </i>
    <i name="atom">    203.99651003 </i>
    <i name="e_fr_energy">      3.09437855 </i>
    <i name="e_wo_entrp">      3.09437855 </i>
    <i name="e_0_energy">      3.09437855 </i>
   </energy>
  </scstep>
  <scstep>
   <time name="total">    0.03    0.03</time>
   <energy>
    <i name="e_fr_energy">      3.07873342 </i>
    <i name="e_wo_entrp">      3.07873342 </i>
    <i name="e_0_energy">      3.07873342 </i>
   </energy>
  </scstep>
  <scstep>
   <time name="total">    0.02    0.03</time>
   <energy>
    <i name="e_fr_energy">      3.07015488 </i>
    <i name="e_wo_entrp">      3.07015488 </i>
    <i name="e_0_energy">      3.07015488 </i>
   </energy>
  </scstep>
  <scstep>
   <time name="total">    0.02    0.03</time>
   <energy>
    <i name="e_fr_energy">      3.06761661 </i>
    <i name="e_wo_entrp">      3.06761661 </i>
    <i name="e_0_energy">      3.06761661 </i>
   </energy>
  </scstep>
  <scstep>
   <time name="total">    0.02    0.02</time>
   <energy>
    <i name="e_fr_energy">      3.06711821 </i>
    <i name="e_wo_entrp">      3.06711821 </i>
    <i name="e_0_energy">      3.06711821 </i>
   </energy>
  </scstep>
  <scstep>
   <time name="total">    0.02    0.02</time>
   <energy>
    <i name="e_fr_energy">      3.06701560 </i>
    <i name="e_wo_entrp">      3.06701560 </i>
    <i name="e_0_energy">      3.06701560 </i>
   </energy>
  </scstep>
  <scstep>
   <time name="total">    0.02    0.02</time>
   <energy>
    <i name="e_fr_energy">      3.06695274 </i>
    <i name="e_wo_entrp">      3.06695274 </i>
    <i name="e_0_energy">      3.06695274 </i>
   </energy>
  </scstep>
  <scstep>
   <time name="total">    0.02    0.02</time>
   <energy>
    <i name="e_fr_energy">      3.06691785 </i>
    <i name="e_wo_entrp">      3.06691785 </i>
    <i name="e_0_energy">      3.06691785 </i>
   </energy>
  </scstep>
  <scstep>
   <time name="total">    0.02    0.02</time>
   <energy>
    <i name="e_fr_energy">      3.06689701 </i>
    <i name="e_wo_entrp">      3.06689701 </i>
    <i name="e_0_energy">      3.06689701 </i>
   </energy>
  </scstep>
  <scstep>
   <time name="total">    0.02    0.02</time>
   <energy>
    <i name="e_fr_energy">      3.06688391 </i>
    <i name="e_wo_entrp">      3.06688391 </i>
    <i name="e_0_energy">      3.06688391 </i>
   </energy>
  </scstep>
  <scstep>
   <time name="total">    0.02    0.02</time>
   <energy>
    <i name="e_fr_energy">      3.06687787 </i>
    <i name="e_wo_entrp">      3.06687787 </i>
    <i name="e_0_energy">      3.06687787 </i>
   </energy>
  </scstep>
  <scstep>
   <time name="total">    0.03    0.03</time>
   <energy>
    <i name="e_fr_energy">      3.06687583 </i>
    <i name="e_wo_entrp">      3.06687583 </i>
    <i name="e_0_energy">      3.06687583 </i>
   </energy>
  </scstep>
  <scstep>
   <time name="total">    0.02    0.02</time>
   <energy>
    <i name="alphaZ">      3.36228930 </i>
    <i name="ewald">   -228.52143995 </i>
    <i name="hartreedc">    -22.81902920 </i>
    <i name="XCdc">    -13.70541009 </i>
    <i name="pawpsdc">   1659.52479564 </i>
    <i name="pawaedc">  -1631.95811738 </i>
    <i name="eentropy">     -0.00000000 </i>
    <i name="bandstr">     19.41950196 </i>
    <i name="atom">    203.99651003 </i>
    <i name="e_fr_energy">      3.06687543 </i>
    <i name="e_wo_entrp">      3.06687543 </i>
    <i name="e_0_energy">      3.06687543 </i>
   </energy>
  </scstep>
  <structure>
   <crystal>
    <varray name="basis" >
     <v>       0.00000000       2.71550000       2.71550000 </v>
     <v>       2.71550000       0.00000000       2.71550000 </v>
     <v>       2.71550000       2.71550000       0.00000000 </v>
    </varray>
    <i name="volume">     40.04786950 </i>
    <varray name="rec_basis" >
     <v>      -0.18412815       0.18412815       0.18412815 </v>
     <v>       0.18412815      -0.18412815       0.18412815 </v>
     <v>       0.18412815       0.18412815      -0.18412815 </v>
    </varray>
   </crystal>
   <varray name="positions" >
    <v>       0.00000000       0.00000000       0.00000000 </v>
    <v>       0.25000000       0.25000000       0.25000000 </v>
   </varray>
  </structure>
  <varray name="forces" >
   <v>       0.00000000       0.00000000       0.00000000 </v>
   <v>      -0.00000000      -0.00000000      -0.00000000 </v>
  </varray>
  <energy>
   <i name="e_fr_energy">      3.06687543 </i>
   <i name="e_wo_entrp">      3.06687543 </i>
   <i name="e_0_energy">     -0.00000000 </i>
  </energy>
  <time name="totalsc">    0.38    0.49</time>
  <eigenvalues>
   <array>
    <dimension dim="1">band</dimension>
    <dimension dim="2">kpoint</dimension>
    <dimension dim="3">spin</dimension>
    <field>eigene</field>
    <field>occ</field>
    <set>
     <set comment="spin 1">
      <set comment="kpoint 1">
       <r>   -6.9180    1.0000 </r>
       <r>    5.5426    1.0000 </r>
       <r>    5.5426    1.0000 </r>
       <r>    5.5426    1.0000 </r>
       <r>    9.9456    0.0000 </r>
       <r>    9.9456    0.0000 </r>
       <r>    9.9456    0.0000 </r>
       <r>   11.2711    0.0000 </r>
      </set>
     </set>
    </set>
   </array>
  </eigenvalues>
  <separator name="orbital magnetization" >
   <v name="MAGDIPOLOUT">      0.00000000      0.00000000      0.00000000</v>
  </separator>
  <dos>
   <i name="efermi">      5.78631557 </i>
   <total>
    <array>
     <dimension dim="1">gridpoints</dimension>
     <dimension dim="2">spin</dimension>
     <field>energy</field>
     <field>total</field>
     <field>integrated</field>
     <set>
      <set comment="spin 1">
       <r>    -7.8275     0.0000     0.0000 </r>
       <r>    -7.7608     0.0000     0.0000 </r>
       <r>    -7.6941     0.0000     0.0000 </r>
       <r>    -7.6274     0.0000     0.0000 </r>
       <r>    -7.5607     0.0000     0.0000 </r>
       <r>    -7.4940     0.0000     0.0000 </r>
       <r>    -7.4273     0.0000     0.0000 </r>
       <r>    -7.3606     0.0000     0.0000 </r>
       <r>    -7.2939     0.0000     0.0000 </r>
       <r>    -7.2272     0.0000     0.0000 </r>
       <r>    -7.1605     0.0000     0.0000 </r>
       <r>    -7.0938     0.0000     0.0000 </r>
       <r>    -7.0271     0.0303     0.0020 </r>
       <r>    -6.9605     3.4179     0.2300 </r>
       <r>    -6.8938    19.1515     1.5073 </r>
       <r>    -6.8271     7.2367     1.9899 </r>
       <r>    -6.7604     0.1513     2.0000 </r>
       <r>    -6.6937     0.0001     2.0000 </r>
       <r>    -6.6270     0.0000     2.0000 </r>
       <r>    -6.5603     0.0000     2.0000 </r>
       <r>    -6.4936     0.0000     2.0000 </r>
       <r>    -6.4269     0.0000     2.0000 </r>
       <r>    -6.3602     0.0000     2.0000 </r>
       <r>    -6.2935     0.0000     2.0000 </r>
       <r>    -6.2268     0.0000     2.0000 </r>
       <r>    -6.1601     0.0000     2.0000 </r>
       <r>    -6.0934     0.0000     2.0000 </r>
       <r>    -6.0267     0.0000     2.0000 </r>
       <r>    -5.9601     0.0000     2.0000 </r>
       <r>    -5.8934     0.0000     2.0000 </r>
       <r>    -5.8267     0.0000     2.0000 </r>
       <r>    -5.7600     0.0000     2.0000 </r>
       <r>    -5.6933     0.0000     2.0000 </r>
       <r>    -5.6266     0.0000     2.0000 </r>
       <r>    -5.5599     0.0000     2.0000 </r>
       <r>    -5.4932     0.0000     2.0000 </r>
       <r>    -5.4265     0.0000     2.0000 </r>
       <r>    -5.3598     0.0000     2.0000 </r>
       <r>    -5.2931     0.0000     2.0000 </r>
       <r>    -5.2264     0.0000     2.0000 </r>
       <r>    -5.1597     0.0000     2.0000 </r>
       <r>    -5.0930     0.0000     2.0000 </r>
       <r>    -5.0263     0.0000     2.0000 </r>
       <r>    -4.9597     0.0000     2.0000 </r>
       <r>    -4.8930     0.0000     2.0000 </r>
       <r>    -4.8263     0.0000     2.0000 </r>
       <r>    -4.7596     0.0000     2.0000 </r>
       <r>    -4.6929     0.0000     2.0000 </r>
       <r>    -4.6262     0.0000     2.0000 </r>
       <r>    -4.5595     0.0000     2.0000 </r>
       <r>    -4.4928     0.0000     2.0000 </r>
       <r>    -4.4261     0.0000     2.0000 </r>
       <r>    -4.3594     0.0000     2.0000 </r>
       <r>    -4.2927     0.0000     2.0000 </r>
       <r>    -4.2260     0.0000     2.0000 </r>
       <r>    -4.1593     0.0000     2.0000 </r>
       <r>    -4.0926     0.0000     2.0000 </r>
       <r>    -4.0259     0.0000     2.0000 </r>
       <r>    -3.9593     0.0000     2.0000 </r>
       <r>    -3.8926     0.0000     2.0000 </r>
       <r>    -3.8259     0.0000     2.0000 </r>
       <r>    -3.7592     0.0000     2.0000 </r>
       <r>    -3.6925     0.0000     2.0000 </r>
       <r>    -3.6258     0.0000     2.0000 </r>
       <r>    -3.5591     0.0000     2.0000 </r>
       <r>    -3.4924     0.0000     2.0000 </r>
       <r>    -3.4257     0.0000     2.0000 </r>
       <r>    -3.3590     0.0000     2.0000 </r>
       <r>    -3.2923     0.0000     2.0000 </r>
       <r>    -3.2256     0.0000     2.0000 </r>
       <r>    -3.1589     0.0000     2.0000 </r>
       <r>    -3.0922     0.0000     2.0000 </r>
       <r>    -3.0255     0.0000     2.0000 </r>
       <r>    -2.9589     0.0000     2.0000 </r>
       <r>    -2.8922     0.0000     2.0000 </r>
       <r>    -2.8255     0.0000     2.0000 </r>
       <r>    -2.7588     0.0000     2.0000 </r>
       <r>    -2.6921     0.0000     2.0000 </r>
       <r>    -2.6254     0.0000     2.0000 </r>
       <r>    -2.5587     0.0000     2.0000 </r>
       <r>    -2.4920     0.0000     2.0000 </r>
       <r>    -2.4253     0.0000     2.0000 </r>
       <r>    -2.3586     0.0000     2.0000 </r>
       <r>    -2.2919     0.0000     2.0000 </r>
       <r>    -2.2252     0.0000     2.0000 </r>
       <r>    -2.1585     0.0000     2.0000 </r>
       <r>    -2.0918     0.0000     2.0000 </r>
       <r>    -2.0251     0.0000     2.0000 </r>
       <r>    -1.9585     0.0000     2.0000 </r>
       <r>    -1.8918     0.0000     2.0000 </r>
       <r>    -1.8251     0.0000     2.0000 </r>
       <r>    -1.7584     0.0000     2.0000 </r>
       <r>    -1.6917     0.0000     2.0000 </r>
       <r>    -1.6250     0.0000     2.0000 </r>
       <r>    -1.5583     0.0000     2.0000 </r>
       <r>    -1.4916     0.0000     2.0000 </r>
       <r>    -1.4249     0.0000     2.0000 </r>
       <r>    -1.3582     0.0000     2.0000 </r>
       <r>    -1.2915     0.0000     2.0000 </r>
       <r>    -1.2248     0.0000     2.0000 </r>
       <r>    -1.1581     0.0000     2.0000 </r>
       <r>    -1.0914     0.0000     2.0000 </r>
       <r>    -1.0247     0.0000     2.0000 </r>
       <r>    -0.9581     0.0000     2.0000 </r>
       <r>    -0.8914     0.0000     2.0000 </r>
       <r>    -0.8247     0.0000     2.0000 </r>
       <r>    -0.7580     0.0000     2.0000 </r>
       <r>    -0.6913     0.0000     2.0000 </r>
       <r>    -0.6246     0.0000     2.0000 </r>
       <r>    -0.5579     0.0000     2.0000 </r>
       <r>    -0.4912     0.0000     2.0000 </r>
       <r>    -0.4245     0.0000     2.0000 </r>
       <r>    -0.3578     0.0000     2.0000 </r>
       <r>    -0.2911     0.0000     2.0000 </r>
       <r>    -0.2244     0.0000     2.0000 </r>
       <r>    -0.1577     0.0000     2.0000 </r>
       <r>    -0.0910     0.0000     2.0000 </r>
       <r>    -0.0243     0.0000     2.0000 </r>
       <r>     0.0423     0.0000     2.0000 </r>
       <r>     0.1090     0.0000     2.0000 </r>
       <r>     0.1757     0.0000     2.0000 </r>
       <r>     0.2424     0.0000     2.0000 </r>
       <r>     0.3091     0.0000     2.0000 </r>
       <r>     0.3758     0.0000     2.0000 </r>
       <r>     0.4425     0.0000     2.0000 </r>
       <r>     0.5092     0.0000     2.0000 </r>
       <r>     0.5759     0.0000     2.0000 </r>
       <r>     0.6426     0.0000     2.0000 </r>
       <r>     0.7093     0.0000     2.0000 </r>
       <r>     0.7760     0.0000     2.0000 </r>
       <r>     0.8427     0.0000     2.0000 </r>
       <r>     0.9094     0.0000     2.0000 </r>
       <r>     0.9761     0.0000     2.0000 </r>
       <r>     1.0428     0.0000     2.0000 </r>
       <r>     1.1094     0.0000     2.0000 </r>
       <r>     1.1761     0.0000     2.0000 </r>
       <r>     1.2428     0.0000     2.0000 </r>
       <r>     1.3095     0.0000     2.0000 </r>
       <r>     1.3762     0.0000     2.0000 </r>
       <r>     1.4429     0.0000     2.0000 </r>
       <r>     1.5096     0.0000     2.0000 </r>
       <r>     1.5763     0.0000     2.0000 </r>
       <r>     1.6430     0.0000     2.0000 </r>
       <r>     1.7097     0.0000     2.0000 </r>
       <r>     1.7764     0.0000     2.0000 </r>
       <r>     1.8431     0.0000     2.0000 </r>
       <r>     1.9098     0.0000     2.0000 </r>
       <r>     1.9765     0.0000     2.0000 </r>
       <r>     2.0432     0.0000     2.0000 </r>
       <r>     2.1098     0.0000     2.0000 </r>
       <r>     2.1765     0.0000     2.0000 </r>
       <r>     2.2432     0.0000     2.0000 </r>
       <r>     2.3099     0.0000     2.0000 </r>
       <r>     2.3766     0.0000     2.0000 </r>
       <r>     2.4433     0.0000     2.0000 </r>
       <r>     2.5100     0.0000     2.0000 </r>
       <r>     2.5767     0.0000     2.0000 </r>
       <r>     2.6434     0.0000     2.0000 </r>
       <r>     2.7101     0.0000     2.0000 </r>
       <r>     2.7768     0.0000     2.0000 </r>
       <r>     2.8435     0.0000     2.0000 </r>
       <r>     2.9102     0.0000     2.0000 </r>
       <r>     2.9769     0.0000     2.0000 </r>
       <r>     3.0436     0.0000     2.0000 </r>
       <r>     3.1102     0.0000     2.0000 </r>
       <r>     3.1769     0.0000     2.0000 </r>
       <r>     3.2436     0.0000     2.0000 </r>
       <r>     3.3103     0.0000     2.0000 </r>
       <r>     3.3770     0.0000     2.0000 </r>
       <r>     3.4437     0.0000     2.0000 </r>
       <r>     3.5104     0.0000     2.0000 </r>
       <r>     3.5771     0.0000     2.0000 </r>
       <r>     3.6438     0.0000     2.0000 </r>
       <r>     3.7105     0.0000     2.0000 </r>
       <r>     3.7772     0.0000     2.0000 </r>
       <r>     3.8439     0.0000     2.0000 </r>
       <r>     3.9106     0.0000     2.0000 </r>
       <r>     3.9773     0.0000     2.0000 </r>
       <r>     4.0440     0.0000     2.0000 </r>
       <r>     4.1106     0.0000     2.0000 </r>
       <r>     4.1773     0.0000     2.0000 </r>
       <r>     4.2440     0.0000     2.0000 </r>
       <r>     4.3107     0.0000     2.0000 </r>
       <r>     4.3774     0.0000     2.0000 </r>
       <r>     4.4441     0.0000     2.0000 </r>
       <r>     4.5108     0.0000     2.0000 </r>
       <r>     4.5775     0.0000     2.0000 </r>
       <r>     4.6442     0.0000     2.0000 </r>
       <r>     4.7109     0.0000     2.0000 </r>
       <r>     4.7776     0.0000     2.0000 </r>
       <r>     4.8443     0.0000     2.0000 </r>
       <r>     4.9110     0.0000     2.0000 </r>
       <r>     4.9777     0.0000     2.0000 </r>
       <r>     5.0444     0.0000     2.0000 </r>
       <r>     5.1110     0.0000     2.0000 </r>
       <r>     5.1777     0.0000     2.0000 </r>
       <r>     5.2444     0.0000     2.0000 </r>
       <r>     5.3111     0.0000     2.0000 </r>
       <r>     5.3778     0.0001     2.0000 </r>
       <r>     5.4445     0.2489     2.0166 </r>
       <r>     5.5112    16.6061     3.1241 </r>
       <r>     5.5779    58.8069     7.0462 </r>
       <r>     5.6446    14.1259     7.9883 </r>
       <r>     5.7113     0.1760     8.0000 </r>
       <r>     5.7780     0.0001     8.0000 </r>
       <r>     5.8447     0.0000     8.0000 </r>
       <r>     5.9114     0.0000     8.0000 </r>
       <r>     5.9781     0.0000     8.0000 </r>
       <r>     6.0448     0.0000     8.0000 </r>
       <r>     6.1114     0.0000     8.0000 </r>
       <r>     6.1781     0.0000     8.0000 </r>
       <r>     6.2448     0.0000     8.0000 </r>
       <r>     6.3115     0.0000     8.0000 </r>
       <r>     6.3782     0.0000     8.0000 </r>
       <r>     6.4449     0.0000     8.0000 </r>
       <r>     6.5116     0.0000     8.0000 </r>
       <r>     6.5783     0.0000     8.0000 </r>
       <r>     6.6450     0.0000     8.0000 </r>
       <r>     6.7117     0.0000     8.0000 </r>
       <r>     6.7784     0.0000     8.0000 </r>
       <r>     6.8451     0.0000     8.0000 </r>
       <r>     6.9118     0.0000     8.0000 </r>
       <r>     6.9785     0.0000     8.0000 </r>
       <r>     7.0452     0.0000     8.0000 </r>
       <r>     7.1118     0.0000     8.0000 </r>
       <r>     7.1785     0.0000     8.0000 </r>
       <r>     7.2452     0.0000     8.0000 </r>
       <r>     7.3119     0.0000     8.0000 </r>
       <r>     7.3786     0.0000     8.0000 </r>
       <r>     7.4453     0.0000     8.0000 </r>
       <r>     7.5120     0.0000     8.0000 </r>
       <r>     7.5787     0.0000     8.0000 </r>
       <r>     7.6454     0.0000     8.0000 </r>
       <r>     7.7121     0.0000     8.0000 </r>
       <r>     7.7788     0.0000     8.0000 </r>
       <r>     7.8455     0.0000     8.0000 </r>
       <r>     7.9122     0.0000     8.0000 </r>
       <r>     7.9789     0.0000     8.0000 </r>
       <r>     8.0456     0.0000     8.0000 </r>
       <r>     8.1122     0.0000     8.0000 </r>
       <r>     8.1789     0.0000     8.0000 </r>
       <r>     8.2456     0.0000     8.0000 </r>
       <r>     8.3123     0.0000     8.0000 </r>
       <r>     8.3790     0.0000     8.0000 </r>
       <r>     8.4457     0.0000     8.0000 </r>
       <r>     8.5124     0.0000     8.0000 </r>
       <r>     8.5791     0.0000     8.0000 </r>
       <r>     8.6458     0.0000     8.0000 </r>
       <r>     8.7125     0.0000     8.0000 </r>
       <r>     8.7792     0.0000     8.0000 </r>
       <r>     8.8459     0.0000     8.0000 </r>
       <r>     8.9126     0.0000     8.0000 </r>
       <r>     8.9793     0.0000     8.0000 </r>
       <r>     9.0460     0.0000     8.0000 </r>
       <r>     9.1126     0.0000     8.0000 </r>
       <r>     9.1793     0.0000     8.0000 </r>
       <r>     9.2460     0.0000     8.0000 </r>
       <r>     9.3127     0.0000     8.0000 </r>
       <r>     9.3794     0.0000     8.0000 </r>
       <r>     9.4461     0.0000     8.0000 </r>
       <r>     9.5128     0.0000     8.0000 </r>
       <r>     9.5795     0.0000     8.0000 </r>
       <r>     9.6462     0.0000     8.0000 </r>
       <r>     9.7129     0.0000     8.0000 </r>
       <r>     9.7796     0.0001     8.0000 </r>
       <r>     9.8463     0.2233     8.0149 </r>
       <r>     9.9130    15.7935     9.0682 </r>
       <r>     9.9797    58.8648    12.9941 </r>
       <r>    10.0464    14.8856    13.9869 </r>
       <r>    10.1130     0.1966    14.0000 </r>
       <r>    10.1797     0.0001    14.0000 </r>
       <r>    10.2464     0.0000    14.0000 </r>
       <r>    10.3131     0.0000    14.0000 </r>
       <r>    10.3798     0.0000    14.0000 </r>
       <r>    10.4465     0.0000    14.0000 </r>
       <r>    10.5132     0.0000    14.0000 </r>
       <r>    10.5799     0.0000    14.0000 </r>
       <r>    10.6466     0.0000    14.0000 </r>
       <r>    10.7133     0.0000    14.0000 </r>
       <r>    10.7800     0.0000    14.0000 </r>
       <r>    10.8467     0.0000    14.0000 </r>
       <r>    10.9134     0.0000    14.0000 </r>
       <r>    10.9801     0.0000    14.0000 </r>
       <r>    11.0468     0.0000    14.0000 </r>
       <r>    11.1134     0.0001    14.0000 </r>
       <r>    11.1801     0.1513    14.0101 </r>
       <r>    11.2468     7.2367    14.4927 </r>
       <r>    11.3135    19.1515    15.7700 </r>
       <r>    11.3802     3.4179    15.9980 </r>
       <r>    11.4469     0.0303    16.0000 </r>
       <r>    11.5136     0.0000    16.0000 </r>
       <r>    11.5803     0.0000    16.0000 </r>
       <r>    11.6470     0.0000    16.0000 </r>
       <r>    11.7137     0.0000    16.0000 </r>
       <r>    11.7804     0.0000    16.0000 </r>
       <r>    11.8471     0.0000    16.0000 </r>
       <r>    11.9138     0.0000    16.0000 </r>
       <r>    11.9805     0.0000    16.0000 </r>
       <r>    12.0472     0.0000    16.0000 </r>
       <r>    12.1138     0.0000    16.0000 </r>
       <r>    12.1805     0.0000    16.0000 </r>
      </set>
     </set>
    </array>
   </total>
  </dos>
 </calculation>
 <structure name="finalpos" >
  <crystal>
   <varray name="basis" >
    <v>       0.00000000       2.71550000       2.71550000 </v>
    <v>       2.71550000       0.00000000       2.71550000 </v>
    <v>       2.71550000       2.71550000       0.00000000 </v>
   </varray>
   <i name="volume">     40.04786950 </i>
   <varray name="rec_basis" >
    <v>      -0.18412815       0.18412815       0.18412815 </v>
    <v>       0.18412815      -0.18412815       0.18412815 </v>
    <v>       0.18412815       0.18412815      -0.18412815 </v>
   </varray>
  </crystal>
  <varray name="positions" >
   <v>       0.00000000       0.00000000       0.00000000 </v>
   <v>       0.25000000       0.25000000       0.25000000 </v>
  </varray>
 </structure>
</modeling>
