    2    2    1    1
  0.5905204E+01  0.2556191E-09  0.2556191E-09  0.2556191E-09  0.5000000E-15
  1.000000000000000E-004
  CAR 
 BN-HSE06-gamma-vasp  (HSE06)            
      8      1      8
 
  0.0000000E+00  0.0000000E+00  0.0000000E+00  0.1000000E+01
    1      -13.710695   1.000000
    2        8.254442   1.000000
    3        8.254442   1.000000
    4        8.254607   1.000000
    5       18.370623   0.000000
    6       18.370623   0.000000
    7       18.370657   0.000000
    8       21.291103   0.000000
