       N       E                     dE             d eps       ncg     rms          ort
SDA:   1     0.312223225754E+01    0.31222E+01   -0.17237E-01     8   0.431E-01 0.000E+00
DMP:   2     0.310941409540E+01   -0.12818E-01   -0.81311E-02     8   0.123E-01 0.210E-01
DMP:   3     0.310474571277E+01   -0.46684E-02   -0.13256E-02     8   0.215E-02 0.304E-02
DMP:   4     0.310412834563E+01   -0.61737E-03   -0.62599E-03     8   0.164E-02-0.193E-03
DMP:   5     0.310370094263E+01   -0.42740E-03   -0.36133E-03     8   0.677E-03 0.593E-03
DMP:   6     0.310346097697E+01   -0.23997E-03   -0.11801E-03     8   0.179E-03 0.305E-03
DMP:   7     0.310338810495E+01   -0.72872E-04   -0.39853E-04     8   0.719E-04 0.726E-04
DMP:   8     0.310336272578E+01   -0.25379E-04   -0.18185E-04     8   0.346E-04 0.285E-04
DMP:   9     0.310335097022E+01   -0.11756E-04   -0.68685E-05     8   0.120E-04 0.136E-04
DMP:  10     0.310334691131E+01   -0.40589E-05   -0.18072E-05     8   0.349E-05 0.270E-05
DMP:  11     0.310334592236E+01   -0.98895E-06   -0.55815E-06     8   0.140E-05-0.150E-07
   1 F= 0.31033459E+01 E0= 0.31033459E+01  d E =-.341131E-14
