<?xml version="1.0" encoding="ISO-8859-1"?>
<modeling>
 <generator>
  <i name="program" type="string">vasp </i>
  <i name="version" type="string">5.4.4.18Apr17-6-g9f103f2a35  </i>
  <i name="subversion" type="string">(build Mar 10 2026 18:18:58) gamma-only         parallel </i>
  <i name="platform" type="string">LinuxIFC </i>
  <i name="date" type="string">2026 06 25 </i>
  <i name="time" type="string">15:59:35 </i>
 </generator>
 <incar>
  <i type="string" name="SYSTEM"> BN-HSE06-gamma-vasp  (HSE06)</i>
  <i type="int" name="ISTART">     1</i>
  <i type="string" name="PREC">accurate</i>
  <i type="string" name="ALGO"> Damped</i>
  <i type="int" name="ICHARG">     0</i>
  <i type="int" name="NELM">   120</i>
  <i name="EDIFF">      0.00000100</i>
  <i name="ENCUT">    520.00000000</i>
  <i type="logical" name="LREAL"> F  </i>
  <i name="TIME">      0.40000000</i>
  <i type="int" name="ISMEAR">     0</i>
  <i name="SIGMA">      0.05000000</i>
  <i type="logical" name="LWAVE"> F  </i>
  <i type="logical" name="LCHARG"> F  </i>
  <v type="int" name="KPOINT_BSE">    -1     0     0     0</v>
  <i type="int" name="NELM">   120</i>
  <i type="logical" name="LHFCALC"> T  </i>
  <i name="HFSCREEN">      0.20000000</i>
  <i name="AEXX">      0.25000000</i>
  <i type="string" name="PRECFOCK">fast</i>
 </incar>
 <structure name="primitive_cell" >
  <crystal>
   <varray name="basis" >
    <v>       0.00000000       1.80750000       1.80750000 </v>
    <v>       1.80750000       0.00000000       1.80750000 </v>
    <v>       1.80750000       1.80750000       0.00000000 </v>
   </varray>
   <i name="volume">     11.81040834 </i>
   <varray name="rec_basis" >
    <v>      -0.27662517       0.27662517       0.27662517 </v>
    <v>       0.27662517      -0.27662517       0.27662517 </v>
    <v>       0.27662517       0.27662517      -0.27662517 </v>
   </varray>
  </crystal>
  <varray name="positions" >
   <v>       0.00000000       0.00000000       0.00000000 </v>
   <v>       0.25000000       0.25000000       0.25000000 </v>
  </varray>
 </structure>
 <varray name="primitive_index" >
  <v type="int" >        1 </v>
  <v type="int" >        2 </v>
 </varray>
 <kpoints>
  <generation param="Gamma">
   <v type="int" name="divisions">       1        1        1 </v>
   <v name="usershift">      0.00000000       0.00000000       0.00000000 </v>
   <v name="genvec1">      1.00000000       0.00000000       0.00000000 </v>
   <v name="genvec2">      0.00000000       1.00000000       0.00000000 </v>
   <v name="genvec3">      0.00000000       0.00000000       1.00000000 </v>
   <v name="shift">      0.00000000       0.00000000       0.00000000 </v>
  </generation>
  <varray name="kpointlist" >
   <v>       0.00000000       0.00000000       0.00000000 </v>
  </varray>
  <varray name="weights" >
   <v>       1.00000000 </v>
  </varray>
 </kpoints>
 <parameters>
  <separator name="general" >
   <i type="string" name="SYSTEM">BN-HSE06-gamma-vasp  (HSE06)</i>
   <i type="logical" name="LCOMPAT"> F  </i>
  </separator>
  <separator name="electronic" >
   <i type="string" name="PREC">accura</i>
   <i name="ENMAX">    520.00000000</i>
   <i name="ENAUG">    627.11200000</i>
   <i name="EDIFF">      0.00000100</i>
   <i type="int" name="IALGO">    53</i>
   <i type="int" name="IWAVPR">    10</i>
   <i type="int" name="NBANDS">     8</i>
   <i name="NELECT">      8.00000000</i>
   <i type="int" name="TURBO">     0</i>
   <i type="int" name="IRESTART">     0</i>
   <i type="int" name="NREBOOT">     0</i>
   <i type="int" name="NMIN">     0</i>
   <i name="EREF">      0.00000000</i>
   <separator name="electronic smearing" >
    <i type="int" name="ISMEAR">     0</i>
    <i name="SIGMA">      0.05000000</i>
    <i name="KSPACING">      0.50000000</i>
    <i type="logical" name="KGAMMA"> T  </i>
   </separator>
   <separator name="electronic projectors" >
    <i type="logical" name="LREAL"> F  </i>
    <v name="ROPT">      0.00000000      0.00000000</v>
    <i type="int" name="LMAXPAW">  -100</i>
    <i type="int" name="LMAXMIX">     2</i>
    <i type="logical" name="NLSPLINE"> F  </i>
   </separator>
   <separator name="electronic startup" >
    <i type="int" name="ISTART">     1</i>
    <i type="int" name="ICHARG">     0</i>
    <i type="int" name="INIWAV">     1</i>
   </separator>
   <separator name="electronic spin" >
    <i type="int" name="ISPIN">     1</i>
    <i type="logical" name="LNONCOLLINEAR"> F  </i>
    <v name="MAGMOM">      1.00000000      1.00000000</v>
    <i name="NUPDOWN">     -1.00000000</i>
    <i type="logical" name="LSORBIT"> F  </i>
    <v name="SAXIS">      0.00000000      0.00000000      1.00000000</v>
    <i type="logical" name="LSPIRAL"> F  </i>
    <v name="QSPIRAL">      0.00000000      0.00000000      0.00000000</v>
    <i type="logical" name="LZEROZ"> F  </i>
   </separator>
   <separator name="electronic exchange-correlation" >
    <i type="logical" name="LASPH"> F  </i>
    <i type="logical" name="LMETAGGA"> F  </i>
   </separator>
   <separator name="electronic convergence" >
    <i type="int" name="NELM">   120</i>
    <i type="int" name="NELMDL">     0</i>
    <i type="int" name="NELMIN">     2</i>
    <i name="ENINI">    520.00000000</i>
    <separator name="electronic convergence detail" >
     <i type="logical" name="LDIAG"> T  </i>
     <i type="logical" name="LSUBROT"> F  </i>
     <i name="WEIMIN">      0.00000000</i>
     <i name="EBREAK">      0.00000003</i>
     <i name="DEPER">      0.30000000</i>
     <i type="int" name="NRMM">     4</i>
     <i name="TIME">      0.40000000</i>
    </separator>
   </separator>
   <separator name="electronic mixer" >
    <i name="AMIX">      0.40000000</i>
    <i name="BMIX">      1.00000000</i>
    <i name="AMIN">      0.10000000</i>
    <i name="AMIX_MAG">      1.60000000</i>
    <i name="BMIX_MAG">      1.00000000</i>
    <separator name="electronic mixer details" >
     <i type="int" name="IMIX">     4</i>
     <i type="logical" name="MIXFIRST"> F  </i>
     <i type="int" name="MAXMIX">   -45</i>
     <i name="WC">    100.00000000</i>
     <i type="int" name="INIMIX">     1</i>
     <i type="int" name="MIXPRE">     1</i>
     <i type="int" name="MREMOVE">     5</i>
    </separator>
   </separator>
   <separator name="electronic dipolcorrection" >
    <i type="logical" name="LDIPOL"> F  </i>
    <i type="logical" name="LMONO"> F  </i>
    <i type="int" name="IDIPOL">     0</i>
    <i name="EPSILON">      1.00000000</i>
    <v name="DIPOL">   -100.00000000   -100.00000000   -100.00000000</v>
    <i name="EFIELD">      0.00000000</i>
   </separator>
  </separator>
  <separator name="grids" >
   <i type="int" name="NGX">    20</i>
   <i type="int" name="NGY">    20</i>
   <i type="int" name="NGZ">    20</i>
   <i type="int" name="NGXF">    40</i>
   <i type="int" name="NGYF">    40</i>
   <i type="int" name="NGZF">    40</i>
   <i type="logical" name="ADDGRID"> F  </i>
  </separator>
  <separator name="ionic" >
   <i type="int" name="NSW">     0</i>
   <i type="int" name="IBRION">    -1</i>
   <i type="int" name="MDALGO">     0</i>
   <i type="int" name="ISIF">     0</i>
   <i name="PSTRESS">      0.00000000</i>
   <i name="EDIFFG">      0.00001000</i>
   <i type="int" name="NFREE">     0</i>
   <i name="POTIM">      0.50000000</i>
   <i name="SMASS">     -3.00000000</i>
   <i name="SCALEE">      1.00000000</i>
  </separator>
  <separator name="ionic md" >
   <i name="TEBEG">      0.00010000</i>
   <i name="TEEND">      0.00010000</i>
   <i type="int" name="NBLOCK">     1</i>
   <i type="int" name="KBLOCK">     1</i>
   <i type="int" name="NPACO">   256</i>
   <i name="APACO">     16.00000000</i>
  </separator>
  <separator name="symmetry" >
   <i type="int" name="ISYM">     3</i>
   <i name="SYMPREC">      0.00001000</i>
  </separator>
  <separator name="dos" >
   <i type="int" name="LORBIT">     0</i>
   <v name="RWIGS">     -1.00000000     -1.00000000</v>
   <i type="int" name="NEDOS">   301</i>
   <i name="EMIN">     10.00000000</i>
   <i name="EMAX">    -10.00000000</i>
   <i name="EFERMI">      0.00000000</i>
  </separator>
  <separator name="writing" >
   <i type="int" name="NWRITE">     2</i>
   <i type="logical" name="LWAVE"> F  </i>
   <i type="logical" name="LDOWNSAMPLE"> F  </i>
   <i type="logical" name="LCHARG"> F  </i>
   <i type="logical" name="LPARD"> F  </i>
   <i type="logical" name="LVTOT"> F  </i>
   <i type="logical" name="LVHAR"> F  </i>
   <i type="logical" name="LELF"> F  </i>
   <i type="logical" name="LOPTICS"> F  </i>
   <v name="STM">      0.00000000      0.00000000      0.00000000      0.00000000      0.00000000      0.00000000      0.00000000</v>
  </separator>
  <separator name="performance" >
   <i type="int" name="NPAR">     8</i>
   <i type="int" name="NSIM">     4</i>
   <i type="int" name="NBLK">    -1</i>
   <i type="logical" name="LPLANE"> T  </i>
   <i type="logical" name="LSCALAPACK"> T  </i>
   <i type="logical" name="LSCAAWARE"> F  </i>
   <i type="logical" name="LSCALU"> F  </i>
   <i type="logical" name="LASYNC"> F  </i>
   <i type="logical" name="LORBITALREAL"> F  </i>
  </separator>
  <separator name="miscellaneous" >
   <i type="int" name="IDIOT">     3</i>
   <i type="int" name="ISPECIAL">     0</i>
   <i type="logical" name="LMUSIC"> F  </i>
   <v name="POMASS">     10.81100000     14.00100000</v>
   <v name="DARWINR">      0.00000000      0.00000000</v>
   <v name="DARWINV">      1.00000000      1.00000000</v>
   <i type="logical" name="LCORR"> T  </i>
  </separator>
  <i type="logical" name="GGA_COMPAT"> T  </i>
  <i type="logical" name="LBERRY"> F  </i>
  <i type="int" name="ICORELEVEL">     0</i>
  <i type="logical" name="LDAU"> F  </i>
  <i type="int" name="I_CONSTRAINED_M">     0</i>
  <separator name="electronic exchange-correlation" >
   <i type="string" name="GGA">--</i>
   <i type="int" name="VOSKOWN">     0</i>
   <i type="logical" name="LHFCALC"> T  </i>
   <i type="string" name="PRECFOCK">fast</i>
   <i type="logical" name="LSYMGRAD"> F  </i>
   <i type="logical" name="LHFONE"> F  </i>
   <i type="logical" name="LRHFCALC"> F  </i>
   <i type="logical" name="LTHOMAS"> F  </i>
   <i type="logical" name="LMODELHF"> F  </i>
   <i name="ENCUT4O">     -1.00000000</i>
   <i type="int" name="EXXOEP">     0</i>
   <i type="int" name="FOURORBIT">     0</i>
   <i name="AEXX">      0.25000000</i>
   <i name="HFALPHA">     -1.00000000</i>
   <i name="MCALPHA">      0.00000000</i>
   <i name="ALDAX">      0.75000000</i>
   <i name="AGGAX">      0.75000000</i>
   <i name="ALDAC">      1.00000000</i>
   <i name="AGGAC">      1.00000000</i>
   <i type="int" name="NKREDX">     1</i>
   <i type="int" name="NKREDY">     1</i>
   <i type="int" name="NKREDZ">     1</i>
   <i type="logical" name="SHIFTRED"> F  </i>
   <i type="logical" name="ODDONLY"> F  </i>
   <i type="logical" name="EVENONLY"> F  </i>
   <i type="int" name="LMAXFOCK">     4</i>
   <i type="int" name="NMAXFOCKAE">     1</i>
   <i type="logical" name="LFOCKAEDFT"> F  </i>
   <i name="HFSCREEN">      0.20000000</i>
   <i name="HFSCREENC">      0.20000000</i>
   <i type="int" name="NBANDSGWLOW">     1</i>
  </separator>
  <separator name="vdW DFT" >
   <i type="logical" name="LUSE_VDW"> F  </i>
   <i name="Zab_VDW">     -0.84910000</i>
   <i name="PARAM1">      0.12340000</i>
   <i name="PARAM2">      1.00000000</i>
   <i name="PARAM3">      0.00000000</i>
  </separator>
  <separator name="model GW" >
   <i type="int" name="MODEL_GW">     0</i>
   <i name="MODEL_EPS0">      3.54312250</i>
   <i name="MODEL_ALPHA">      1.00000000</i>
  </separator>
  <separator name="linear response parameters" >
   <i type="logical" name="LEPSILON"> F  </i>
   <i type="logical" name="LRPA"> F  </i>
   <i type="logical" name="LNABLA"> F  </i>
   <i type="logical" name="LVEL"> F  </i>
   <i type="int" name="KINTER">     0</i>
   <i name="CSHIFT">      0.10000000</i>
   <i name="OMEGAMAX">     -1.00000000</i>
   <i name="DEG_THRESHOLD">      0.00200000</i>
   <i name="RTIME">     -0.10000000</i>
   <i name="WPLASMAI">      0.00000000</i>
   <v name="DFIELD">      0.00000000      0.00000000      0.00000000</v>
   <v name="WPLASMA">      0.00000000      0.00000000      0.00000000      0.00000000      0.00000000      0.00000000      0.00000000      0.00000000      0.00000000</v>
  </separator>
  <separator name="orbital magnetization" >
   <i type="logical" name="NUCIND"> F  </i>
   <v name="MAGPOS">      0.00000000      0.00000000      0.00000000</v>
   <i type="logical" name="LNICSALL"> T  </i>
   <i type="logical" name="ORBITALMAG"> F  </i>
   <i type="logical" name="LMAGBLOCH"> F  </i>
   <i type="logical" name="LCHIMAG"> F  </i>
   <i type="logical" name="LGAUGE"> T  </i>
   <i type="int" name="MAGATOM">     0</i>
   <v name="MAGDIPOL">      0.00000000      0.00000000      0.00000000</v>
   <v name="AVECCONST">      0.00000000      0.00000000      0.00000000</v>
  </separator>
  <separator name="response functions" >
   <i type="logical" name="LADDER"> F  </i>
   <i type="logical" name="LRPAFORCE"> F  </i>
   <i type="logical" name="LFXC"> F  </i>
   <i type="logical" name="LHARTREE"> T  </i>
   <i type="int" name="IBSE">     0</i>
   <v type="int" name="KPOINT">    -1     0     0     0</v>
   <i type="logical" name="LTCTE"> F  </i>
   <i type="logical" name="LTETE"> F  </i>
   <i type="logical" name="LTRIPLET"> F  </i>
   <i type="logical" name="LFXCEPS"> F  </i>
   <i type="logical" name="LFXHEG"> F  </i>
   <i type="int" name="NATURALO">     2</i>
   <i type="logical" name="L2ORDER"> F  </i>
   <i type="logical" name="LMP2LT"> F  </i>
   <i type="logical" name="LUSEW"> F  </i>
   <i name="ENCUTGW">     -2.00000000</i>
   <i name="ENCUTGWSOFT">     -2.00000000</i>
   <i name="ENCUTLF">     -1.00000000</i>
   <i type="int" name="LMAXMP2">    -1</i>
   <i name="SCISSOR">      0.00000000</i>
   <i type="int" name="NOMEGA">     0</i>
   <i type="int" name="NOMEGAR">     0</i>
   <i type="int" name="NBANDSGW">    -1</i>
   <i type="int" name="NBANDSO">    -1</i>
   <i type="int" name="NBANDSV">    -1</i>
   <i type="int" name="NELM">   120</i>
   <i type="int" name="NELMHF">     1</i>
   <i type="int" name="DIM">     3</i>
   <i type="int" name="ANTIRES">     0</i>
   <i name="OMEGAMAX">    -30.00000000</i>
   <i name="OMEGAMIN">    -30.00000000</i>
   <i name="OMEGATL">   -200.00000000</i>
   <i type="int" name="OMEGAGRID">   140</i>
   <i name="CSHIFT">     -0.10000000</i>
   <i type="logical" name="SELFENERGY"> F  </i>
   <i type="logical" name="LSPECTRAL"> F  </i>
   <i type="logical" name="LSPECTRALGW"> F  </i>
   <i type="logical" name="LSINGLES"> F  </i>
   <i type="logical" name="LFERMIGW"> F  </i>
   <i type="logical" name="ODDONLYGW"> F  </i>
   <i type="logical" name="EVENONLYGW"> F  </i>
   <i type="int" name="NKREDLFX">     1</i>
   <i type="int" name="NKREDLFY">     1</i>
   <i type="int" name="NKREDLFZ">     1</i>
   <i type="int" name="MAXMEM">  2800</i>
   <i type="int" name="TELESCOPE">     0</i>
   <i type="int" name="TAUPAR">     1</i>
   <i type="int" name="OMEGAPAR">    -1</i>
   <i name="LAMBDA">      1.00000000</i>
  </separator>
  <separator name="External order field" >
   <i name="OFIELD_KAPPA">      0.00000000</i>
   <v name="OFIELD_K">      0.00000000      0.00000000      0.00000000</v>
   <i name="OFIELD_Q6_NEAR">      0.00000000</i>
   <i name="OFIELD_Q6_FAR">      0.00000000</i>
   <i name="OFIELD_A">      0.00000000</i>
  </separator>
 </parameters>
 <atominfo>
  <atoms>       2 </atoms>
  <types>       2 </types>
  <array name="atoms" >
   <dimension dim="1">ion</dimension>
   <field type="string">element</field>
   <field type="int">atomtype</field>
   <set>
    <rc><c>B </c><c>   1</c></rc>
    <rc><c>N </c><c>   2</c></rc>
   </set>
  </array>
  <array name="atomtypes" >
   <dimension dim="1">type</dimension>
   <field type="int">atomspertype</field>
   <field type="string">element</field>
   <field>mass</field>
   <field>valence</field>
   <field type="string">pseudopotential</field>
   <set>
    <rc><c>   1</c><c>B </c><c>     10.81100000</c><c>      3.00000000</c><c>  PAW_PBE B 06Sep2000                   </c></rc>
    <rc><c>   1</c><c>N </c><c>     14.00100000</c><c>      5.00000000</c><c>  PAW_PBE N 08Apr2002                   </c></rc>
   </set>
  </array>
 </atominfo>
 <structure name="initialpos" >
  <crystal>
   <varray name="basis" >
    <v>       0.00000000       1.80750000       1.80750000 </v>
    <v>       1.80750000       0.00000000       1.80750000 </v>
    <v>       1.80750000       1.80750000       0.00000000 </v>
   </varray>
   <i name="volume">     11.81040834 </i>
   <varray name="rec_basis" >
    <v>      -0.27662517       0.27662517       0.27662517 </v>
    <v>       0.27662517      -0.27662517       0.27662517 </v>
    <v>       0.27662517       0.27662517      -0.27662517 </v>
   </varray>
  </crystal>
  <varray name="positions" >
   <v>       0.00000000       0.00000000       0.00000000 </v>
   <v>       0.25000000       0.25000000       0.25000000 </v>
  </varray>
 </structure>
 <calculation>
  <scstep>
   <time name="total">    0.04    0.05</time>
   <energy>
    <i name="alphaZ">     30.12996246 </i>
    <i name="ewald">   -358.38817986 </i>
    <i name="hartreedc">    -68.62058846 </i>
    <i name="XCdc">     23.36772850 </i>
    <i name="pawpsdc">    969.36294352 </i>
    <i name="pawaedc">   -970.28863929 </i>
    <i name="eentropy">     -0.00000000 </i>
    <i name="bandstr">     22.61169128 </i>
    <i name="atom">    332.23264155 </i>
    <i name="e_fr_energy">      3.12223226 </i>
    <i name="e_wo_entrp">      3.12223226 </i>
    <i name="e_0_energy">      3.12223226 </i>
   </energy>
  </scstep>
  <scstep>
   <time name="total">    0.03    0.03</time>
   <energy>
    <i name="e_fr_energy">      3.10941410 </i>
    <i name="e_wo_entrp">      3.10941410 </i>
    <i name="e_0_energy">      3.10941410 </i>
   </energy>
  </scstep>
  <scstep>
   <time name="total">    0.03    0.03</time>
   <energy>
    <i name="e_fr_energy">      3.10474571 </i>
    <i name="e_wo_entrp">      3.10474571 </i>
    <i name="e_0_energy">      3.10474571 </i>
   </energy>
  </scstep>
  <scstep>
   <time name="total">    0.03    0.03</time>
   <energy>
    <i name="e_fr_energy">      3.10412835 </i>
    <i name="e_wo_entrp">      3.10412835 </i>
    <i name="e_0_energy">      3.10412835 </i>
   </energy>
  </scstep>
  <scstep>
   <time name="total">    0.03    0.03</time>
   <energy>
    <i name="e_fr_energy">      3.10370094 </i>
    <i name="e_wo_entrp">      3.10370094 </i>
    <i name="e_0_energy">      3.10370094 </i>
   </energy>
  </scstep>
  <scstep>
   <time name="total">    0.03    0.03</time>
   <energy>
    <i name="e_fr_energy">      3.10346098 </i>
    <i name="e_wo_entrp">      3.10346098 </i>
    <i name="e_0_energy">      3.10346098 </i>
   </energy>
  </scstep>
  <scstep>
   <time name="total">    0.03    0.03</time>
   <energy>
    <i name="e_fr_energy">      3.10338810 </i>
    <i name="e_wo_entrp">      3.10338810 </i>
    <i name="e_0_energy">      3.10338810 </i>
   </energy>
  </scstep>
  <scstep>
   <time name="total">    0.03    0.03</time>
   <energy>
    <i name="e_fr_energy">      3.10336273 </i>
    <i name="e_wo_entrp">      3.10336273 </i>
    <i name="e_0_energy">      3.10336273 </i>
   </energy>
  </scstep>
  <scstep>
   <time name="total">    0.03    0.03</time>
   <energy>
    <i name="e_fr_energy">      3.10335097 </i>
    <i name="e_wo_entrp">      3.10335097 </i>
    <i name="e_0_energy">      3.10335097 </i>
   </energy>
  </scstep>
  <scstep>
   <time name="total">    0.03    0.03</time>
   <energy>
    <i name="e_fr_energy">      3.10334691 </i>
    <i name="e_wo_entrp">      3.10334691 </i>
    <i name="e_0_energy">      3.10334691 </i>
   </energy>
  </scstep>
  <scstep>
   <time name="total">    0.03    0.03</time>
   <energy>
    <i name="alphaZ">     30.12996246 </i>
    <i name="ewald">   -358.38817986 </i>
    <i name="hartreedc">    -68.14508486 </i>
    <i name="XCdc">     23.34777125 </i>
    <i name="pawpsdc">   1006.60892549 </i>
    <i name="pawaedc">  -1007.50468248 </i>
    <i name="eentropy">     -0.00000000 </i>
    <i name="bandstr">     22.10566937 </i>
    <i name="atom">    332.23264155 </i>
    <i name="e_fr_energy">      3.10334592 </i>
    <i name="e_wo_entrp">      3.10334592 </i>
    <i name="e_0_energy">      3.10334592 </i>
   </energy>
  </scstep>
  <structure>
   <crystal>
    <varray name="basis" >
     <v>       0.00000000       1.80750000       1.80750000 </v>
     <v>       1.80750000       0.00000000       1.80750000 </v>
     <v>       1.80750000       1.80750000       0.00000000 </v>
    </varray>
    <i name="volume">     11.81040834 </i>
    <varray name="rec_basis" >
     <v>      -0.27662517       0.27662517       0.27662517 </v>
     <v>       0.27662517      -0.27662517       0.27662517 </v>
     <v>       0.27662517       0.27662517      -0.27662517 </v>
    </varray>
   </crystal>
   <varray name="positions" >
    <v>       0.00000000       0.00000000       0.00000000 </v>
    <v>       0.25000000       0.25000000       0.25000000 </v>
   </varray>
  </structure>
  <varray name="forces" >
   <v>      -0.00000000       0.00000000       0.00000000 </v>
   <v>       0.00000000      -0.00000000      -0.00000000 </v>
  </varray>
  <energy>
   <i name="e_fr_energy">      3.10334592 </i>
   <i name="e_wo_entrp">      3.10334592 </i>
   <i name="e_0_energy">     -0.00000000 </i>
  </energy>
  <time name="totalsc">    0.38    2.31</time>
  <eigenvalues>
   <array>
    <dimension dim="1">band</dimension>
    <dimension dim="2">kpoint</dimension>
    <dimension dim="3">spin</dimension>
    <field>eigene</field>
    <field>occ</field>
    <set>
     <set comment="spin 1">
      <set comment="kpoint 1">
       <r>  -13.7107    1.0000 </r>
       <r>    8.2544    1.0000 </r>
       <r>    8.2544    1.0000 </r>
       <r>    8.2546    1.0000 </r>
       <r>   18.3706    0.0000 </r>
       <r>   18.3706    0.0000 </r>
       <r>   18.3707    0.0000 </r>
       <r>   21.2911    0.0000 </r>
      </set>
     </set>
    </set>
   </array>
  </eigenvalues>
  <separator name="orbital magnetization" >
   <v name="MAGDIPOLOUT">      0.00000000      0.00000000      0.00000000</v>
  </separator>
  <dos>
   <i name="efermi">      8.55482377 </i>
   <total>
    <array>
     <dimension dim="1">gridpoints</dimension>
     <dimension dim="2">spin</dimension>
     <field>energy</field>
     <field>total</field>
     <field>integrated</field>
     <set>
      <set comment="spin 1">
       <r>   -15.4608     0.0000     0.0000 </r>
       <r>   -15.3324     0.0000     0.0000 </r>
       <r>   -15.2041     0.0000     0.0000 </r>
       <r>   -15.0758     0.0000     0.0000 </r>
       <r>   -14.9474     0.0000     0.0000 </r>
       <r>   -14.8191     0.0000     0.0000 </r>
       <r>   -14.6907     0.0000     0.0000 </r>
       <r>   -14.5624     0.0000     0.0000 </r>
       <r>   -14.4341     0.0000     0.0000 </r>
       <r>   -14.3057     0.0000     0.0000 </r>
       <r>   -14.1774     0.0000     0.0000 </r>
       <r>   -14.0490     0.0000     0.0000 </r>
       <r>   -13.9207     0.0000     0.0000 </r>
       <r>   -13.7924     0.1628     0.0209 </r>
       <r>   -13.6640    13.9651     1.8132 </r>
       <r>   -13.5357     1.4558     2.0000 </r>
       <r>   -13.4073     0.0000     2.0000 </r>
       <r>   -13.2790     0.0000     2.0000 </r>
       <r>   -13.1507     0.0000     2.0000 </r>
       <r>   -13.0223     0.0000     2.0000 </r>
       <r>   -12.8940     0.0000     2.0000 </r>
       <r>   -12.7656     0.0000     2.0000 </r>
       <r>   -12.6373     0.0000     2.0000 </r>
       <r>   -12.5090     0.0000     2.0000 </r>
       <r>   -12.3806     0.0000     2.0000 </r>
       <r>   -12.2523     0.0000     2.0000 </r>
       <r>   -12.1239     0.0000     2.0000 </r>
       <r>   -11.9956     0.0000     2.0000 </r>
       <r>   -11.8673     0.0000     2.0000 </r>
       <r>   -11.7389     0.0000     2.0000 </r>
       <r>   -11.6106     0.0000     2.0000 </r>
       <r>   -11.4822     0.0000     2.0000 </r>
       <r>   -11.3539     0.0000     2.0000 </r>
       <r>   -11.2256     0.0000     2.0000 </r>
       <r>   -11.0972     0.0000     2.0000 </r>
       <r>   -10.9689     0.0000     2.0000 </r>
       <r>   -10.8405     0.0000     2.0000 </r>
       <r>   -10.7122     0.0000     2.0000 </r>
       <r>   -10.5839     0.0000     2.0000 </r>
       <r>   -10.4555     0.0000     2.0000 </r>
       <r>   -10.3272     0.0000     2.0000 </r>
       <r>   -10.1988     0.0000     2.0000 </r>
       <r>   -10.0705     0.0000     2.0000 </r>
       <r>    -9.9422     0.0000     2.0000 </r>
       <r>    -9.8138     0.0000     2.0000 </r>
       <r>    -9.6855     0.0000     2.0000 </r>
       <r>    -9.5571     0.0000     2.0000 </r>
       <r>    -9.4288     0.0000     2.0000 </r>
       <r>    -9.3005     0.0000     2.0000 </r>
       <r>    -9.1721     0.0000     2.0000 </r>
       <r>    -9.0438     0.0000     2.0000 </r>
       <r>    -8.9154     0.0000     2.0000 </r>
       <r>    -8.7871     0.0000     2.0000 </r>
       <r>    -8.6588     0.0000     2.0000 </r>
       <r>    -8.5304     0.0000     2.0000 </r>
       <r>    -8.4021     0.0000     2.0000 </r>
       <r>    -8.2737     0.0000     2.0000 </r>
       <r>    -8.1454     0.0000     2.0000 </r>
       <r>    -8.0171     0.0000     2.0000 </r>
       <r>    -7.8887     0.0000     2.0000 </r>
       <r>    -7.7604     0.0000     2.0000 </r>
       <r>    -7.6320     0.0000     2.0000 </r>
       <r>    -7.5037     0.0000     2.0000 </r>
       <r>    -7.3754     0.0000     2.0000 </r>
       <r>    -7.2470     0.0000     2.0000 </r>
       <r>    -7.1187     0.0000     2.0000 </r>
       <r>    -6.9903     0.0000     2.0000 </r>
       <r>    -6.8620     0.0000     2.0000 </r>
       <r>    -6.7337     0.0000     2.0000 </r>
       <r>    -6.6053     0.0000     2.0000 </r>
       <r>    -6.4770     0.0000     2.0000 </r>
       <r>    -6.3487     0.0000     2.0000 </r>
       <r>    -6.2203     0.0000     2.0000 </r>
       <r>    -6.0920     0.0000     2.0000 </r>
       <r>    -5.9636     0.0000     2.0000 </r>
       <r>    -5.8353     0.0000     2.0000 </r>
       <r>    -5.7070     0.0000     2.0000 </r>
       <r>    -5.5786     0.0000     2.0000 </r>
       <r>    -5.4503     0.0000     2.0000 </r>
       <r>    -5.3219     0.0000     2.0000 </r>
       <r>    -5.1936     0.0000     2.0000 </r>
       <r>    -5.0653     0.0000     2.0000 </r>
       <r>    -4.9369     0.0000     2.0000 </r>
       <r>    -4.8086     0.0000     2.0000 </r>
       <r>    -4.6802     0.0000     2.0000 </r>
       <r>    -4.5519     0.0000     2.0000 </r>
       <r>    -4.4236     0.0000     2.0000 </r>
       <r>    -4.2952     0.0000     2.0000 </r>
       <r>    -4.1669     0.0000     2.0000 </r>
       <r>    -4.0385     0.0000     2.0000 </r>
       <r>    -3.9102     0.0000     2.0000 </r>
       <r>    -3.7819     0.0000     2.0000 </r>
       <r>    -3.6535     0.0000     2.0000 </r>
       <r>    -3.5252     0.0000     2.0000 </r>
       <r>    -3.3968     0.0000     2.0000 </r>
       <r>    -3.2685     0.0000     2.0000 </r>
       <r>    -3.1402     0.0000     2.0000 </r>
       <r>    -3.0118     0.0000     2.0000 </r>
       <r>    -2.8835     0.0000     2.0000 </r>
       <r>    -2.7551     0.0000     2.0000 </r>
       <r>    -2.6268     0.0000     2.0000 </r>
       <r>    -2.4985     0.0000     2.0000 </r>
       <r>    -2.3701     0.0000     2.0000 </r>
       <r>    -2.2418     0.0000     2.0000 </r>
       <r>    -2.1134     0.0000     2.0000 </r>
       <r>    -1.9851     0.0000     2.0000 </r>
       <r>    -1.8568     0.0000     2.0000 </r>
       <r>    -1.7284     0.0000     2.0000 </r>
       <r>    -1.6001     0.0000     2.0000 </r>
       <r>    -1.4717     0.0000     2.0000 </r>
       <r>    -1.3434     0.0000     2.0000 </r>
       <r>    -1.2151     0.0000     2.0000 </r>
       <r>    -1.0867     0.0000     2.0000 </r>
       <r>    -0.9584     0.0000     2.0000 </r>
       <r>    -0.8300     0.0000     2.0000 </r>
       <r>    -0.7017     0.0000     2.0000 </r>
       <r>    -0.5734     0.0000     2.0000 </r>
       <r>    -0.4450     0.0000     2.0000 </r>
       <r>    -0.3167     0.0000     2.0000 </r>
       <r>    -0.1883     0.0000     2.0000 </r>
       <r>    -0.0600     0.0000     2.0000 </r>
       <r>     0.0683     0.0000     2.0000 </r>
       <r>     0.1967     0.0000     2.0000 </r>
       <r>     0.3250     0.0000     2.0000 </r>
       <r>     0.4534     0.0000     2.0000 </r>
       <r>     0.5817     0.0000     2.0000 </r>
       <r>     0.7100     0.0000     2.0000 </r>
       <r>     0.8384     0.0000     2.0000 </r>
       <r>     0.9667     0.0000     2.0000 </r>
       <r>     1.0951     0.0000     2.0000 </r>
       <r>     1.2234     0.0000     2.0000 </r>
       <r>     1.3517     0.0000     2.0000 </r>
       <r>     1.4801     0.0000     2.0000 </r>
       <r>     1.6084     0.0000     2.0000 </r>
       <r>     1.7368     0.0000     2.0000 </r>
       <r>     1.8651     0.0000     2.0000 </r>
       <r>     1.9934     0.0000     2.0000 </r>
       <r>     2.1218     0.0000     2.0000 </r>
       <r>     2.2501     0.0000     2.0000 </r>
       <r>     2.3785     0.0000     2.0000 </r>
       <r>     2.5068     0.0000     2.0000 </r>
       <r>     2.6351     0.0000     2.0000 </r>
       <r>     2.7635     0.0000     2.0000 </r>
       <r>     2.8918     0.0000     2.0000 </r>
       <r>     3.0202     0.0000     2.0000 </r>
       <r>     3.1485     0.0000     2.0000 </r>
       <r>     3.2768     0.0000     2.0000 </r>
       <r>     3.4052     0.0000     2.0000 </r>
       <r>     3.5335     0.0000     2.0000 </r>
       <r>     3.6619     0.0000     2.0000 </r>
       <r>     3.7902     0.0000     2.0000 </r>
       <r>     3.9185     0.0000     2.0000 </r>
       <r>     4.0469     0.0000     2.0000 </r>
       <r>     4.1752     0.0000     2.0000 </r>
       <r>     4.3036     0.0000     2.0000 </r>
       <r>     4.4319     0.0000     2.0000 </r>
       <r>     4.5602     0.0000     2.0000 </r>
       <r>     4.6886     0.0000     2.0000 </r>
       <r>     4.8169     0.0000     2.0000 </r>
       <r>     4.9453     0.0000     2.0000 </r>
       <r>     5.0736     0.0000     2.0000 </r>
       <r>     5.2019     0.0000     2.0000 </r>
       <r>     5.3303     0.0000     2.0000 </r>
       <r>     5.4586     0.0000     2.0000 </r>
       <r>     5.5870     0.0000     2.0000 </r>
       <r>     5.7153     0.0000     2.0000 </r>
       <r>     5.8436     0.0000     2.0000 </r>
       <r>     5.9720     0.0000     2.0000 </r>
       <r>     6.1003     0.0000     2.0000 </r>
       <r>     6.2287     0.0000     2.0000 </r>
       <r>     6.3570     0.0000     2.0000 </r>
       <r>     6.4853     0.0000     2.0000 </r>
       <r>     6.6137     0.0000     2.0000 </r>
       <r>     6.7420     0.0000     2.0000 </r>
       <r>     6.8704     0.0000     2.0000 </r>
       <r>     6.9987     0.0000     2.0000 </r>
       <r>     7.1270     0.0000     2.0000 </r>
       <r>     7.2554     0.0000     2.0000 </r>
       <r>     7.3837     0.0000     2.0000 </r>
       <r>     7.5121     0.0000     2.0000 </r>
       <r>     7.6404     0.0000     2.0000 </r>
       <r>     7.7687     0.0000     2.0000 </r>
       <r>     7.8971     0.0000     2.0000 </r>
       <r>     8.0254     0.0000     2.0000 </r>
       <r>     8.1538     0.1024     2.0131 </r>
       <r>     8.2821    36.4815     6.6952 </r>
       <r>     8.4104    10.1667     8.0000 </r>
       <r>     8.5388     0.0002     8.0000 </r>
       <r>     8.6671     0.0000     8.0000 </r>
       <r>     8.7955     0.0000     8.0000 </r>
       <r>     8.9238     0.0000     8.0000 </r>
       <r>     9.0521     0.0000     8.0000 </r>
       <r>     9.1805     0.0000     8.0000 </r>
       <r>     9.3088     0.0000     8.0000 </r>
       <r>     9.4372     0.0000     8.0000 </r>
       <r>     9.5655     0.0000     8.0000 </r>
       <r>     9.6938     0.0000     8.0000 </r>
       <r>     9.8222     0.0000     8.0000 </r>
       <r>     9.9505     0.0000     8.0000 </r>
       <r>    10.0789     0.0000     8.0000 </r>
       <r>    10.2072     0.0000     8.0000 </r>
       <r>    10.3355     0.0000     8.0000 </r>
       <r>    10.4639     0.0000     8.0000 </r>
       <r>    10.5922     0.0000     8.0000 </r>
       <r>    10.7206     0.0000     8.0000 </r>
       <r>    10.8489     0.0000     8.0000 </r>
       <r>    10.9772     0.0000     8.0000 </r>
       <r>    11.1056     0.0000     8.0000 </r>
       <r>    11.2339     0.0000     8.0000 </r>
       <r>    11.3623     0.0000     8.0000 </r>
       <r>    11.4906     0.0000     8.0000 </r>
       <r>    11.6189     0.0000     8.0000 </r>
       <r>    11.7473     0.0000     8.0000 </r>
       <r>    11.8756     0.0000     8.0000 </r>
       <r>    12.0040     0.0000     8.0000 </r>
       <r>    12.1323     0.0000     8.0000 </r>
       <r>    12.2606     0.0000     8.0000 </r>
       <r>    12.3890     0.0000     8.0000 </r>
       <r>    12.5173     0.0000     8.0000 </r>
       <r>    12.6457     0.0000     8.0000 </r>
       <r>    12.7740     0.0000     8.0000 </r>
       <r>    12.9023     0.0000     8.0000 </r>
       <r>    13.0307     0.0000     8.0000 </r>
       <r>    13.1590     0.0000     8.0000 </r>
       <r>    13.2874     0.0000     8.0000 </r>
       <r>    13.4157     0.0000     8.0000 </r>
       <r>    13.5440     0.0000     8.0000 </r>
       <r>    13.6724     0.0000     8.0000 </r>
       <r>    13.8007     0.0000     8.0000 </r>
       <r>    13.9291     0.0000     8.0000 </r>
       <r>    14.0574     0.0000     8.0000 </r>
       <r>    14.1857     0.0000     8.0000 </r>
       <r>    14.3141     0.0000     8.0000 </r>
       <r>    14.4424     0.0000     8.0000 </r>
       <r>    14.5708     0.0000     8.0000 </r>
       <r>    14.6991     0.0000     8.0000 </r>
       <r>    14.8274     0.0000     8.0000 </r>
       <r>    14.9558     0.0000     8.0000 </r>
       <r>    15.0841     0.0000     8.0000 </r>
       <r>    15.2125     0.0000     8.0000 </r>
       <r>    15.3408     0.0000     8.0000 </r>
       <r>    15.4691     0.0000     8.0000 </r>
       <r>    15.5975     0.0000     8.0000 </r>
       <r>    15.7258     0.0000     8.0000 </r>
       <r>    15.8542     0.0000     8.0000 </r>
       <r>    15.9825     0.0000     8.0000 </r>
       <r>    16.1108     0.0000     8.0000 </r>
       <r>    16.2392     0.0000     8.0000 </r>
       <r>    16.3675     0.0000     8.0000 </r>
       <r>    16.4959     0.0000     8.0000 </r>
       <r>    16.6242     0.0000     8.0000 </r>
       <r>    16.7525     0.0000     8.0000 </r>
       <r>    16.8809     0.0000     8.0000 </r>
       <r>    17.0092     0.0000     8.0000 </r>
       <r>    17.1376     0.0000     8.0000 </r>
       <r>    17.2659     0.0000     8.0000 </r>
       <r>    17.3942     0.0000     8.0000 </r>
       <r>    17.5226     0.0000     8.0000 </r>
       <r>    17.6509     0.0000     8.0000 </r>
       <r>    17.7793     0.0000     8.0000 </r>
       <r>    17.9076     0.0000     8.0000 </r>
       <r>    18.0359     0.0000     8.0000 </r>
       <r>    18.1643     0.0000     8.0000 </r>
       <r>    18.2926     0.6390     8.0820 </r>
       <r>    18.4210    42.4969    13.5361 </r>
       <r>    18.5493     3.6150    14.0000 </r>
       <r>    18.6776     0.0000    14.0000 </r>
       <r>    18.8060     0.0000    14.0000 </r>
       <r>    18.9343     0.0000    14.0000 </r>
       <r>    19.0627     0.0000    14.0000 </r>
       <r>    19.1910     0.0000    14.0000 </r>
       <r>    19.3193     0.0000    14.0000 </r>
       <r>    19.4477     0.0000    14.0000 </r>
       <r>    19.5760     0.0000    14.0000 </r>
       <r>    19.7044     0.0000    14.0000 </r>
       <r>    19.8327     0.0000    14.0000 </r>
       <r>    19.9610     0.0000    14.0000 </r>
       <r>    20.0894     0.0000    14.0000 </r>
       <r>    20.2177     0.0000    14.0000 </r>
       <r>    20.3461     0.0000    14.0000 </r>
       <r>    20.4744     0.0000    14.0000 </r>
       <r>    20.6027     0.0000    14.0000 </r>
       <r>    20.7311     0.0000    14.0000 </r>
       <r>    20.8594     0.0000    14.0000 </r>
       <r>    20.9878     0.0000    14.0000 </r>
       <r>    21.1161     0.0000    14.0000 </r>
       <r>    21.2444     1.4558    14.1868 </r>
       <r>    21.3728    13.9651    15.9791 </r>
       <r>    21.5011     0.1628    16.0000 </r>
       <r>    21.6295     0.0000    16.0000 </r>
       <r>    21.7578     0.0000    16.0000 </r>
       <r>    21.8861     0.0000    16.0000 </r>
       <r>    22.0145     0.0000    16.0000 </r>
       <r>    22.1428     0.0000    16.0000 </r>
       <r>    22.2712     0.0000    16.0000 </r>
       <r>    22.3995     0.0000    16.0000 </r>
       <r>    22.5278     0.0000    16.0000 </r>
       <r>    22.6562     0.0000    16.0000 </r>
       <r>    22.7845     0.0000    16.0000 </r>
       <r>    22.9129     0.0000    16.0000 </r>
       <r>    23.0412     0.0000    16.0000 </r>
      </set>
     </set>
    </array>
   </total>
  </dos>
 </calculation>
 <structure name="finalpos" >
  <crystal>
   <varray name="basis" >
    <v>       0.00000000       1.80750000       1.80750000 </v>
    <v>       1.80750000       0.00000000       1.80750000 </v>
    <v>       1.80750000       1.80750000       0.00000000 </v>
   </varray>
   <i name="volume">     11.81040834 </i>
   <varray name="rec_basis" >
    <v>      -0.27662517       0.27662517       0.27662517 </v>
    <v>       0.27662517      -0.27662517       0.27662517 </v>
    <v>       0.27662517       0.27662517      -0.27662517 </v>
   </varray>
  </crystal>
  <varray name="positions" >
   <v>       0.00000000       0.00000000       0.00000000 </v>
   <v>       0.25000000       0.25000000       0.25000000 </v>
  </varray>
 </structure>
</modeling>
