 running on   32 total cores
 distrk:  each k-point on   32 cores,    1 groups
 distr:  one band on    4 cores,    8 groups
 using from now: INCAR     
 vasp.5.4.4.18Apr17-6-g9f103f2a35 (build Mar 10 2026 18:18:58) gamma-only       
  
 POSCAR found type information on POSCAR  B  N 
 POSCAR found :  2 types and       2 ions
 scaLAPACK will be used
 LDA part: xc-table for Pade appr. of Perdew
 found WAVECAR, reading the header
 POSCAR, INCAR and KPOINTS ok, starting setup
 FFT: planning ...
 reading WAVECAR
 the WAVECAR file was read successfully
 initial charge from wavefunction
 entering main loop
       N       E                     dE             d eps       ncg     rms          ort
 gam= 0.000 g(H,U,f)=  0.417E-01 0.144E-02 0.691E-17 ort(H,U,f) = 0.000E+00 0.000E+00 0.000E+00
SDA:   1     0.312223225754E+01    0.31222E+01   -0.17237E-01     8   0.431E-01 0.000E+00
 gam= 0.382 g(H,U,f)=  0.110E-01 0.134E-02 0.715E-17 ort(H,U,f) = 0.198E-01 0.122E-02 0.825E-17
DMP:   2     0.310941409540E+01   -0.12818E-01   -0.81311E-02     8   0.123E-01 0.210E-01
 gam= 0.382 g(H,U,f)=  0.114E-02 0.102E-02 0.584E-10 ort(H,U,f) = 0.167E-02 0.137E-02 0.106E-09
DMP:   3     0.310474571277E+01   -0.46684E-02   -0.13256E-02     8   0.215E-02 0.304E-02
 gam= 0.382 g(H,U,f)=  0.116E-02 0.474E-03 0.808E-19 ort(H,U,f) =-0.114E-02 0.946E-03 0.156E-18
DMP:   4     0.310412834563E+01   -0.61737E-03   -0.62599E-03     8   0.164E-02-0.193E-03
 gam= 0.382 g(H,U,f)=  0.550E-03 0.126E-03 0.320E-14 ort(H,U,f) = 0.193E-03 0.400E-03 0.874E-14
DMP:   5     0.310370094263E+01   -0.42740E-03   -0.36133E-03     8   0.677E-03 0.593E-03
 gam= 0.382 g(H,U,f)=  0.162E-03 0.169E-04 0.229E-19 ort(H,U,f) = 0.208E-03 0.971E-04 0.607E-19
DMP:   6     0.310346097697E+01   -0.23997E-03   -0.11801E-03     8   0.179E-03 0.305E-03
 gam= 0.382 g(H,U,f)=  0.713E-04 0.603E-06 0.369E-13 ort(H,U,f) = 0.627E-04 0.985E-05 0.127E-12
DMP:   7     0.310338810495E+01   -0.72872E-04   -0.39853E-04     8   0.719E-04 0.726E-04
 gam= 0.382 g(H,U,f)=  0.345E-04 0.193E-07 0.129E-19 ort(H,U,f) = 0.290E-04-0.484E-06 0.451E-19
DMP:   8     0.310336272578E+01   -0.25379E-04   -0.18185E-04     8   0.346E-04 0.285E-04
 gam= 0.382 g(H,U,f)=  0.120E-04 0.238E-07 0.532E-18 ort(H,U,f) = 0.134E-04 0.122E-06 0.207E-17
DMP:   9     0.310335097022E+01   -0.11756E-04   -0.68685E-05     8   0.120E-04 0.136E-04
 gam= 0.382 g(H,U,f)=  0.340E-05 0.853E-07 0.273E-20 ort(H,U,f) = 0.247E-05 0.232E-06 0.130E-19
DMP:  10     0.310334691131E+01   -0.40589E-05   -0.18072E-05     8   0.349E-05 0.270E-05
 gam= 0.382 g(H,U,f)=  0.135E-05 0.505E-07 0.629E-13 ort(H,U,f) =-0.148E-06 0.133E-06 0.270E-12
DMP:  11     0.310334592236E+01   -0.98895E-06   -0.55815E-06     8   0.140E-05-0.150E-07
 final diagonalization
   1 F= 0.31033459E+01 E0= 0.31033459E+01  d E =-.341131E-14
