 running on   32 total cores
 distrk:  each k-point on   32 cores,    1 groups
 distr:  one band on    4 cores,    8 groups
 using from now: INCAR     
 vasp.5.4.4.18Apr17-6-g9f103f2a35 (build Mar 10 2026 18:18:58) gamma-only       
  
 POSCAR found type information on POSCAR  B  N 
 POSCAR found :  2 types and       2 ions
 scaLAPACK will be used
 LDA part: xc-table for Pade appr. of Perdew
 POSCAR, INCAR and KPOINTS ok, starting setup
 FFT: planning ...
 WAVECAR not read
 entering main loop
       N       E                     dE             d eps       ncg     rms          rms(c)
DAV:   1     0.407647957104E+02    0.40765E+02   -0.60887E+03    16   0.944E+02
DAV:   2     0.136133678841E+01   -0.39403E+02   -0.39403E+02    32   0.221E+02
DAV:   3     0.126480396902E+01   -0.96533E-01   -0.96533E-01    16   0.134E+01
DAV:   4     0.126473389230E+01   -0.70077E-04   -0.70077E-04    16   0.316E-01
DAV:   5     0.126473379680E+01   -0.95504E-07   -0.95504E-07    16   0.125E-02    0.157E+01
DAV:   6     0.731085424267E+01    0.60461E+01   -0.28598E+01    16   0.387E+01    0.682E+00
DAV:   7     0.756914160728E+01    0.25829E+00   -0.30488E-01    16   0.537E+00    0.447E+00
DAV:   8     0.761347980067E+01    0.44338E-01   -0.36199E-01    16   0.595E+00    0.671E-01
DAV:   9     0.760979669912E+01   -0.36831E-02   -0.21891E-03    16   0.467E-01    0.266E-01
DAV:  10     0.760881137582E+01   -0.98532E-03   -0.12832E-03    16   0.450E-01    0.578E-02
DAV:  11     0.760880415831E+01   -0.72175E-05   -0.25851E-05    16   0.424E-02    0.948E-03
DAV:  12     0.760880348048E+01   -0.67783E-06   -0.66335E-06    24   0.236E-02
   1 F= 0.76088035E+01 E0= 0.76088035E+01  d E =-.595026E-11
 writing wavefunctions
