    2    2    1    1
  0.8508405E+01  0.2887117E-09  0.2887117E-09  0.2887117E-09  0.5000000E-15
  1.000000000000000E-004
  CAR 
 LiH-HSE06-k333-vasp  (HSE06)            
      4      4      8
 
  0.0000000E+00  0.0000000E+00  0.0000000E+00  0.3703704E-01
    1      -48.191113   1.000000
    2       -6.731973   1.000000
    3       16.343827   0.000000
    4       18.052881   0.000000
    5       18.052892   0.000000
    6       18.052892   0.000000
    7       22.545715   0.000000
    8       22.545715   0.000000
 
  0.3333333E+00  0.0000000E+00  0.0000000E+00  0.2962963E+00
    1      -48.159722   1.000000
    2       -4.714551   1.000000
    3        7.434279   0.000000
    4       14.549684   0.000000
    5       16.607541   0.000000
    6       16.607563   0.000000
    7       20.674858   0.000000
    8       20.674883   0.000000
 
  0.3333333E+00  0.3333333E+00  0.0000000E+00  0.2222222E+00
    1      -48.151353   1.000000
    2       -3.645809   1.000000
    3        7.525143   0.000000
    4       12.033329   0.000000
    5       12.033334   0.000000
    6       15.091040   0.000000
    7       17.388848   0.000000
    8       29.906704   0.000000
 
 -0.3333333E+00  0.3333333E+00  0.0000000E+00  0.4444444E+00
    1      -48.140957   1.000000
    2       -1.988191   1.000000
    3        5.243612   0.000000
    4        7.390893   0.000000
    5       13.040713   0.000000
    6       16.103476   0.000000
    7       24.001676   0.000000
    8       26.570448   0.000000
