       N       E                     dE             d eps       ncg     rms          ort
SDA:   1    -0.683563105004E+01   -0.68356E+01   -0.74936E-02    32   0.187E-01 0.000E+00
DMP:   2    -0.684149854822E+01   -0.58675E-02   -0.45210E-02    32   0.725E-02 0.106E-01
DMP:   3    -0.684460654709E+01   -0.31080E-02   -0.14779E-02    32   0.207E-02 0.424E-02
DMP:   4    -0.684557664859E+01   -0.97010E-03   -0.57096E-03    32   0.985E-03 0.116E-02
DMP:   5    -0.684601280701E+01   -0.43616E-03   -0.34601E-03    32   0.577E-03 0.753E-03
DMP:   6    -0.684628905896E+01   -0.27625E-03   -0.17241E-03    32   0.234E-03 0.516E-03
DMP:   7    -0.684642228256E+01   -0.13322E-03   -0.69422E-04    32   0.840E-04 0.235E-03
DMP:   8    -0.684647505821E+01   -0.52776E-04   -0.26968E-04    32   0.329E-04 0.905E-04
DMP:   9    -0.684649597439E+01   -0.20916E-04   -0.11717E-04    32   0.150E-04 0.375E-04
DMP:  10    -0.684650528645E+01   -0.93121E-05   -0.52061E-05    32   0.642E-05 0.173E-04
DMP:  11    -0.684650940193E+01   -0.41155E-05   -0.20998E-05    32   0.238E-05 0.752E-05
DMP:  12    -0.684651104452E+01   -0.16426E-05   -0.80079E-06    32   0.871E-06 0.296E-05
DMP:  13    -0.684651166896E+01   -0.62444E-06   -0.30478E-06    32   0.331E-06 0.113E-05
   1 F= -.68465117E+01 E0= -.68465117E+01  d E =-.212031E-24
