 vasp.5.4.4.18Apr17-6-g9f103f2a35 (build Mar 10 2026 18:13:51) complex          
  
 executed on             LinuxIFC date 2026.06.25  14:53:01
 running on   32 total cores
 distrk:  each k-point on   32 cores,    1 groups
 distr:  one band on NCORES_PER_BAND=   4 cores,    8 groups


--------------------------------------------------------------------------------------------------------


 INCAR:
 POTCAR:    PAW_PBE Li_sv 10Sep2004               
 POTCAR:    PAW_PBE H 15Jun2001                   
 POTCAR:    PAW_PBE Li_sv 10Sep2004               
   SHA256 =  7e51fe1804c037e1dccc81a9c376d94d693a7559600c847f4b41960edb8ab895 Li
   COPYR  = (c) Copyright 10Sep2004 Georg Kresse                                
   COPYR  = This file is part of the software VASP. Any use, copying, and all ot
   COPYR  = If you do not have a valid VASP license, you may not use, copy or di
   VRHFIN =Li: 1s2s2p                                                           
   LEXCH  = PE                                                                  
   EATOM  =   202.7858 eV,   14.9043 Ry                                         
                                                                                
   TITEL  = PAW_PBE Li_sv 10Sep2004                                             
   LULTRA =        F    use ultrasoft PP ?                                      
   IUNSCR =        0    unscreen: 0-lin 1-nonlin 2-no                           
   RPACOR =    0.000    partial core radius                                     
   POMASS =    7.010; ZVAL   =    3.000    mass and valenz                      
   RCORE  =    1.700    outmost cutoff radius                                   
   RWIGS  =    2.050; RWIGS  =    1.085    wigner-seitz radius (au A)           
   ENMAX  =  499.034; ENMIN  =  374.276 eV                                      
   ICORE  =        2    local potential                                         
   LCOR   =        T    correct aug charges                                     
   LPAW   =        T    paw PP                                                  
   EAUG   =  628.945                                                            
   RMAX   =    1.732    core radius for proj-oper                               
   RAUG   =    1.300    factor for augmentation sphere                          
   RDEP   =    1.728    radius for radial grids                                 
   RDEPT  =    1.329    core radius for aug-charge                              
                                                                                
   Atomic configuration                                                         
    4 entries                                                                   
     n  l   j            E        occ.                                          
     1  0  0.50       -51.8549   2.0000                                         
     2  0  0.50        -2.8742   1.0000                                         
     2  1  0.50        -1.3606   0.0000                                         
     3  2  1.50        -1.3606   0.0000                                         
   Description                                                                  
     l       E           TYP  RCUT    TYP  RCUT                                 
     0    -51.8548813     23  1.400                                             
     0     -2.8742052     23  1.700                                             
     1     -1.3605826     23  1.400                                             
     2     -1.3605826     23  1.400                                             
  local pseudopotential read in
  atomic valenz-charges read in
  non local Contribution for L=           0  read in
    real space projection operators read in
  non local Contribution for L=           0  read in
    real space projection operators read in
  non local Contribution for L=           1  read in
    real space projection operators read in
    PAW grid and wavefunctions read in
 
   number of l-projection  operators is LMAX  =           3
   number of lm-projection operators is LMMAX =           5
 
 POTCAR:    PAW_PBE H 15Jun2001                   
   SHA256 =  030f79b5d3ab3cf0e668861823c8fb652ff669f3e15e46930bd03bfd63a607b6 H/
   COPYR  = (c) Copyright 15Jun2001 Georg Kresse                                
   COPYR  = This file is part of the software VASP. Any use, copying, and all ot
   COPYR  = If you do not have a valid VASP license, you may not use, copy or di
   VRHFIN =H: ultrasoft test                                                    
   LEXCH  = PE                                                                  
   EATOM  =    12.4884 eV,    0.9179 Ry                                         
                                                                                
   TITEL  = PAW_PBE H 15Jun2001                                                 
   LULTRA =        F    use ultrasoft PP ?                                      
   IUNSCR =        0    unscreen: 0-lin 1-nonlin 2-no                           
   RPACOR =    0.000    partial core radius                                     
   POMASS =    1.000; ZVAL   =    1.000    mass and valenz                      
   RCORE  =    1.100    outmost cutoff radius                                   
   RWIGS  =    0.700; RWIGS  =    0.370    wigner-seitz radius (au A)           
   ENMAX  =  250.000; ENMIN  =  200.000 eV                                      
   RCLOC  =    0.701    cutoff for local pot                                    
   LCOR   =        T    correct aug charges                                     
   LPAW   =        T    paw PP                                                  
   EAUG   =  400.000                                                            
   RMAX   =    1.123    core radius for proj-oper                               
   RAUG   =    1.200    factor for augmentation sphere                          
   RDEP   =    1.112    radius for radial grids                                 
   RDEPT  =    0.926    core radius for aug-charge                              
                                                                                
   Atomic configuration                                                         
    2 entries                                                                   
     n  l   j            E        occ.                                          
     1  0  0.50        -6.4927   1.0000                                         
     2  1  0.50        -3.4015   0.0000                                         
   Description                                                                  
     l       E           TYP  RCUT    TYP  RCUT                                 
     0     -6.4927494     23  1.100                                             
     0      6.8029130     23  1.100                                             
     1     -4.0817478     23  1.100                                             
  local pseudopotential read in
  atomic valenz-charges read in
  non local Contribution for L=           0  read in
    real space projection operators read in
  non local Contribution for L=           0  read in
    real space projection operators read in
  non local Contribution for L=           1  read in
    real space projection operators read in
    PAW grid and wavefunctions read in
 
   number of l-projection  operators is LMAX  =           3
   number of lm-projection operators is LMMAX =           5
 
  PAW_PBE Li_sv 10Sep2004               :
 energy of atom  1       EATOM= -202.7858
 kinetic energy error for atom=    0.0072 (will be added to EATOM!!)
  PAW_PBE H 15Jun2001                   :
 energy of atom  2       EATOM=  -12.4884
 kinetic energy error for atom=    0.0003 (will be added to EATOM!!)
 
 
 POSCAR: LiH-HSE06-k333-vasp                     
  positions in cartesian coordinates
  No initial velocities read in
 exchange correlation table for  LEXCH =        8
   RHO(1)=    0.500       N(1)  =     2000
   RHO(2)=  100.500       N(2)  =     4000
 


--------------------------------------------------------------------------------------------------------


 ion  position               nearest neighbor table
   1  0.000  0.000  0.000-
   2  0.500  0.500  0.500-
 
  LATTYP: Found a face centered cubic cell.
 ALAT       =     4.0830000000
  
  Lattice vectors:
  
 A1 = (   0.0000000000,   2.0415000000,   2.0415000000)
 A2 = (   2.0415000000,   0.0000000000,   2.0415000000)
 A3 = (   2.0415000000,   2.0415000000,   0.0000000000)


Analysis of symmetry for initial positions (statically):
=====================================================================
 Subroutine PRICEL returns:
 Original cell was already a primitive cell.
 

 Routine SETGRP: Setting up the symmetry group for a 
 face centered cubic supercell.


 Subroutine GETGRP returns: Found 48 space group operations
 (whereof 48 operations were pure point group operations)
 out of a pool of 48 trial point group operations.


The static configuration has the point symmetry O_h .


Analysis of symmetry for dynamics (positions and initial velocities):
=====================================================================
 Subroutine PRICEL returns:
 Original cell was already a primitive cell.
 

 Routine SETGRP: Setting up the symmetry group for a 
 face centered cubic supercell.


 Subroutine GETGRP returns: Found 48 space group operations
 (whereof 48 operations were pure point group operations)
 out of a pool of 48 trial point group operations.


The dynamic configuration has the point symmetry O_h .


 Subroutine INISYM returns: Found 48 space group operations
 (whereof 48 operations are pure point group operations),
 and found     1 'primitive' translations

 
 
 KPOINTS: Gamma-centered 3 3 3                    

Automatic generation of k-mesh.
Space group operators:
 irot       det(A)        alpha          n_x          n_y          n_z        tau_x        tau_y        tau_z
    1     1.000000     0.000001     1.000000     0.000000     0.000000     0.000000     0.000000     0.000000
    2    -1.000000     0.000001     1.000000     0.000000     0.000000     0.000000     0.000000     0.000000
    3     1.000000   120.000000    -0.577350    -0.577350    -0.577350     0.000000     0.000000     0.000000
    4    -1.000000   120.000000    -0.577350    -0.577350    -0.577350     0.000000     0.000000     0.000000
    5     1.000000   120.000000     0.577350     0.577350     0.577350     0.000000     0.000000     0.000000
    6    -1.000000   120.000000     0.577350     0.577350     0.577350     0.000000     0.000000     0.000000
    7     1.000000    90.000000     0.000000     0.000000    -1.000000     0.000000     0.000000     0.000000
    8    -1.000000    90.000000     0.000000     0.000000    -1.000000     0.000000     0.000000     0.000000
    9     1.000000   180.000000     0.000000     0.707107     0.707107     0.000000     0.000000     0.000000
   10    -1.000000   180.000000     0.000000     0.707107     0.707107     0.000000     0.000000     0.000000
   11     1.000000    90.000000     0.000000     1.000000     0.000000     0.000000     0.000000     0.000000
   12    -1.000000    90.000000     0.000000     1.000000     0.000000     0.000000     0.000000     0.000000
   13     1.000000   180.000000     0.000000     0.000000     1.000000     0.000000     0.000000     0.000000
   14    -1.000000   180.000000     0.000000     0.000000     1.000000     0.000000     0.000000     0.000000
   15     1.000000   120.000000    -0.577350     0.577350     0.577350     0.000000     0.000000     0.000000
   16    -1.000000   120.000000    -0.577350     0.577350     0.577350     0.000000     0.000000     0.000000
   17     1.000000   120.000000    -0.577350     0.577350    -0.577350     0.000000     0.000000     0.000000
   18    -1.000000   120.000000    -0.577350     0.577350    -0.577350     0.000000     0.000000     0.000000
   19     1.000000    90.000000     0.000000     0.000000     1.000000     0.000000     0.000000     0.000000
   20    -1.000000    90.000000     0.000000     0.000000     1.000000     0.000000     0.000000     0.000000
   21     1.000000    90.000000    -1.000000     0.000000     0.000000     0.000000     0.000000     0.000000
   22    -1.000000    90.000000    -1.000000     0.000000     0.000000     0.000000     0.000000     0.000000
   23     1.000000   180.000000     0.707107     0.000000     0.707107     0.000000     0.000000     0.000000
   24    -1.000000   180.000000     0.707107     0.000000     0.707107     0.000000     0.000000     0.000000
   25     1.000000   120.000000     0.577350    -0.577350     0.577350     0.000000     0.000000     0.000000
   26    -1.000000   120.000000     0.577350    -0.577350     0.577350     0.000000     0.000000     0.000000
   27     1.000000   120.000000    -0.577350    -0.577350     0.577350     0.000000     0.000000     0.000000
   28    -1.000000   120.000000    -0.577350    -0.577350     0.577350     0.000000     0.000000     0.000000
   29     1.000000   180.000000     1.000000     0.000000     0.000000     0.000000     0.000000     0.000000
   30    -1.000000   180.000000     1.000000     0.000000     0.000000     0.000000     0.000000     0.000000
   31     1.000000    90.000000     0.000000    -1.000000     0.000000     0.000000     0.000000     0.000000
   32    -1.000000    90.000000     0.000000    -1.000000     0.000000     0.000000     0.000000     0.000000
   33     1.000000   180.000000     0.707107     0.707107     0.000000     0.000000     0.000000     0.000000
   34    -1.000000   180.000000     0.707107     0.707107     0.000000     0.000000     0.000000     0.000000
   35     1.000000    90.000000     1.000000     0.000000     0.000000     0.000000     0.000000     0.000000
   36    -1.000000    90.000000     1.000000     0.000000     0.000000     0.000000     0.000000     0.000000
   37     1.000000   120.000000     0.577350    -0.577350    -0.577350     0.000000     0.000000     0.000000
   38    -1.000000   120.000000     0.577350    -0.577350    -0.577350     0.000000     0.000000     0.000000
   39     1.000000   180.000000     0.000000     1.000000     0.000000     0.000000     0.000000     0.000000
   40    -1.000000   180.000000     0.000000     1.000000     0.000000     0.000000     0.000000     0.000000
   41     1.000000   120.000000     0.577350     0.577350    -0.577350     0.000000     0.000000     0.000000
   42    -1.000000   120.000000     0.577350     0.577350    -0.577350     0.000000     0.000000     0.000000
   43     1.000000   180.000000     0.000000    -0.707107     0.707107     0.000000     0.000000     0.000000
   44    -1.000000   180.000000     0.000000    -0.707107     0.707107     0.000000     0.000000     0.000000
   45     1.000000   180.000000     0.707107    -0.707107     0.000000     0.000000     0.000000     0.000000
   46    -1.000000   180.000000     0.707107    -0.707107     0.000000     0.000000     0.000000     0.000000
   47     1.000000   180.000000     0.707107     0.000000    -0.707107     0.000000     0.000000     0.000000
   48    -1.000000   180.000000     0.707107     0.000000    -0.707107     0.000000     0.000000     0.000000
 
 Subroutine IBZKPT returns following result:
 ===========================================
 
 Found      4 irreducible k-points:
 
 Following reciprocal coordinates:
            Coordinates               Weight
  0.000000  0.000000  0.000000      1.000000
  0.333333  0.000000  0.000000      8.000000
  0.333333  0.333333  0.000000      6.000000
 -0.333333  0.333333  0.000000     12.000000
 
 Following cartesian coordinates:
            Coordinates               Weight
  0.000000  0.000000  0.000000      1.000000
 -0.081639  0.081639  0.081639      8.000000
  0.000000  0.000000  0.163279      6.000000
  0.163279 -0.163279  0.000000     12.000000
 
 
 Subroutine IBZKPT_HF returns following result:
 ==============================================
 
 Found     27 k-points in 1st BZ
 the following     27 k-points will be used (e.g. in the exchange kernel)
 Following reciprocal coordinates:   # in IRBZ
  0.000000  0.000000  0.000000    0.03703704   1 t-inv F
  0.333333  0.000000  0.000000    0.03703704   2 t-inv F
  0.333333  0.333333  0.000000    0.03703704   3 t-inv F
 -0.333333  0.333333  0.000000    0.03703704   4 t-inv F
 -0.333333  0.000000  0.000000    0.03703704   2 t-inv F
  0.000000  0.333333  0.000000    0.03703704   2 t-inv F
  0.000000 -0.333333  0.000000    0.03703704   2 t-inv F
  0.000000  0.000000  0.333333    0.03703704   2 t-inv F
  0.000000  0.000000 -0.333333    0.03703704   2 t-inv F
  0.333333  0.333333  0.333333    0.03703704   2 t-inv F
 -0.333333 -0.333333 -0.333333    0.03703704   2 t-inv F
 -0.333333 -0.333333  0.000000    0.03703704   3 t-inv F
  0.000000  0.333333  0.333333    0.03703704   3 t-inv F
  0.000000 -0.333333 -0.333333    0.03703704   3 t-inv F
  0.333333  0.000000  0.333333    0.03703704   3 t-inv F
 -0.333333  0.000000 -0.333333    0.03703704   3 t-inv F
  0.333333 -0.333333  0.000000    0.03703704   4 t-inv F
  0.000000 -0.333333  0.333333    0.03703704   4 t-inv F
  0.000000  0.333333 -0.333333    0.03703704   4 t-inv F
  0.333333  0.000000 -0.333333    0.03703704   4 t-inv F
 -0.333333  0.000000  0.333333    0.03703704   4 t-inv F
  0.333333  0.333333  0.666667    0.03703704   4 t-inv F
 -0.333333 -0.333333 -0.666667    0.03703704   4 t-inv F
 -0.333333 -0.666667 -0.333333    0.03703704   4 t-inv F
  0.333333  0.666667  0.333333    0.03703704   4 t-inv F
 -0.666667 -0.333333 -0.333333    0.03703704   4 t-inv F
  0.666667  0.333333  0.333333    0.03703704   4 t-inv F


--------------------------------------------------------------------------------------------------------




 Dimension of arrays:
   k-points           NKPTS =      4   k-points in BZ     NKDIM =     27   number of bands    NBANDS=      8
   number of dos      NEDOS =    301   number of ions     NIONS =      2
   non local maximal  LDIM  =      3   non local SUM 2l+1 LMDIM =      5
   total plane-waves  NPLWV =  13824
   max r-space proj   IRMAX =      1   max aug-charges    IRDMAX=  10151
   dimension x,y,z NGX =    24 NGY =   24 NGZ =   24
   dimension x,y,z NGXF=    48 NGYF=   48 NGZF=   48
   support grid    NGXF=    48 NGYF=   48 NGZF=   48
   ions per type =               1   1
   NGX,Y,Z   is equivalent  to a cutoff of  13.82, 13.82, 13.82 a.u.
   NGXF,Y,Z  is equivalent  to a cutoff of  27.64, 27.64, 27.64 a.u.

 SYSTEM =  LiH-HSE06-k333-vasp  (HSE06)            
 POSCAR =  LiH-HSE06-k333-vasp                     

 Startparameter for this run:
   NWRITE =      2    write-flag & timer
   PREC   = accura    normal or accurate (medium, high low for compatibility)
   ISTART =      1    job   : 0-new  1-cont  2-samecut
   ICHARG =      0    charge: 1-file 2-atom 10-const
   ISPIN  =      1    spin polarized calculation?
   LNONCOLLINEAR =      F non collinear calculations
   LSORBIT =      F    spin-orbit coupling
   INIWAV =      1    electr: 0-lowe 1-rand  2-diag
   LASPH  =      F    aspherical Exc in radial PAW
   METAGGA=      F    non-selfconsistent MetaGGA calc.

 Electronic Relaxation 1
   ENCUT  =  650.0 eV  47.77 Ry    6.91 a.u.   6.00  6.00  6.00*2*pi/ulx,y,z
   ENINI  =  650.0     initial cutoff
   ENAUG  =  628.9 eV  augmentation charge cutoff
   NELM   =    120;   NELMIN=  2; NELMDL=  0     # of ELM steps 
   EDIFF  = 0.1E-05   stopping-criterion for ELM
   LREAL  =      F    real-space projection
   NLSPLINE    = F    spline interpolate recip. space projectors
   LCOMPAT=      F    compatible to vasp.4.4
   GGA_COMPAT  = T    GGA compatible to vasp.4.4-vasp.4.6
   LMAXPAW     = -100 max onsite density
   LMAXMIX     =    2 max onsite mixed and CHGCAR
   VOSKOWN=      0    Vosko Wilk Nusair interpolation
   ROPT   =    0.00000   0.00000
 Ionic relaxation
   EDIFFG = 0.1E-04   stopping-criterion for IOM
   NSW    =      0    number of steps for IOM
   NBLOCK =      1;   KBLOCK =      1    inner block; outer block 
   IBRION =     -1    ionic relax: 0-MD 1-quasi-New 2-CG
   NFREE  =      0    steps in history (QN), initial steepest desc. (CG)
   ISIF   =      0    stress and relaxation
   IWAVPR =     10    prediction:  0-non 1-charg 2-wave 3-comb
   ISYM   =      3    0-nonsym 1-usesym 2-fastsym
   LCORR  =      T    Harris-Foulkes like correction to forces

   POTIM  = 0.5000    time-step for ionic-motion
   TEIN   =    0.0    initial temperature
   TEBEG  =    0.0;   TEEND  =   0.0 temperature during run
   SMASS  =  -3.00    Nose mass-parameter (am)
   estimated Nose-frequenzy (Omega)   =  0.10E-29 period in steps =****** mass=  -0.190E-27a.u.
   SCALEE = 1.0000    scale energy and forces
   NPACO  =    256;   APACO  = 16.0  distance and # of slots for P.C.
   PSTRESS=    0.0 pullay stress

  Mass of Ions in am
   POMASS =   7.01  1.00
  Ionic Valenz
   ZVAL   =   3.00  1.00
  Atomic Wigner-Seitz radii
   RWIGS  =  -1.00 -1.00
  virtual crystal weights 
   VCA    =   1.00  1.00
   NELECT =       4.0000    total number of electrons
   NUPDOWN=      -1.0000    fix difference up-down

 DOS related values:
   EMIN   =  10.00;   EMAX   =-10.00  energy-range for DOS
   EFERMI =   0.00
   ISMEAR =     0;   SIGMA  =   0.05  broadening in eV -4-tet -1-fermi 0-gaus

 Electronic relaxation 2 (details)
   IALGO  =     53    algorithm
   LDIAG  =      T    sub-space diagonalisation (order eigenvalues)
   LSUBROT=      F    optimize rotation matrix (better conditioning)
   TURBO    =      0    0=normal 1=particle mesh
   IRESTART =      0    0=no restart 2=restart with 2 vectors
   NREBOOT  =      0    no. of reboots
   NMIN     =      0    reboot dimension
   EREF     =   0.00    reference energy to select bands
   IMIX   =      4    mixing-type and parameters
     AMIX     =   0.40;   BMIX     =  1.00
     AMIX_MAG =   1.60;   BMIX_MAG =  1.00
     AMIN     =   0.10
     WC   =   100.;   INIMIX=   1;  MIXPRE=   1;  MAXMIX= -45

 Intra band minimization:
   WEIMIN = 0.0000     energy-eigenvalue tresh-hold
   EBREAK =  0.31E-07  absolut break condition
   DEPER  =   0.30     relativ break condition  

   TIME   =   0.40     timestep for ELM

  volume/ion in A,a.u.               =       8.51        57.42
  Fermi-wavevector in a.u.,A,eV,Ry     =   1.010343  1.909271 13.888728  1.020793
  Thomas-Fermi vector in A             =   2.143326
 
 Write flags
   LWAVE        =      F    write WAVECAR
   LDOWNSAMPLE  =      F    k-point downsampling of WAVECAR
   LCHARG       =      F    write CHGCAR
   LVTOT        =      F    write LOCPOT, total local potential
   LVHAR        =      F    write LOCPOT, Hartree potential only
   LELF         =      F    write electronic localiz. function (ELF)
   LORBIT       =      0    0 simple, 1 ext, 2 COOP (PROOUT), +10 PAW based schemes


 Dipole corrections
   LMONO  =      F    monopole corrections only (constant potential shift)
   LDIPOL =      F    correct potential (dipole corrections)
   IDIPOL =      0    1-x, 2-y, 3-z, 4-all directions 
   EPSILON=  1.0000000 bulk dielectric constant

 Exchange correlation treatment:
   GGA     =    --    GGA type
   LEXCH   =     8    internal setting for exchange type
   VOSKOWN=      0    Vosko Wilk Nusair interpolation
   EXXOEP  =     0    0=HF, 1=EXX-LHF (local Hartree Fock) 2=EXX OEP
   LHFCALC =     T    Hartree Fock is set to
   LSYMGRAD=     F    symmetrize gradient (conserves proper symmetry)
   PRECFOCK=fast      Normal, Fast or Accurate (Low or Medium for compatibility)
   LRHFCALC=     F    long range Hartree Fock
   LRSCOR  =     F    long range correlation only (use DFT for short range part)
   LTHOMAS =     F    Thomas Fermi screening in HF
   LMODELHF=     F    short range full HF, long range fraction AEXX
   ENCUT4O =  -1.0   cutoff for four orbital integrals eV
   LMAXFOCK=     4    L truncation for augmentation on plane wave grid
   LMAXFOCKAE=  -1    L truncation for all-electron charge restoration on plane wave grid
   NMAXFOCKAE=   1    number of basis functions for all-electron charge restoration
   LFOCKAEDFT=     F  apply the AE augmentation even for DFT
   NKREDX  =     1    reduce k-point grid by
   NKREDY  =     1    reduce k-point grid by
   NKREDZ  =     1    reduce k-point grid by
   SHIFTRED=     F    shift reduced grid of Gamma
   HFKIDENT=     F    idential grid for each k-point
   ODDONLY =     F    use only odd q-grid points
   EVENONLY=     F    use only even q-grid points
   HFALPHA =   -1.0000 decay constant for conv. correction
   MCALPHA =    0.0000 extent of test-charge in conv. correction in multipole expansion
   AEXX    =    0.2500 exact exchange contribution
   HFSCREEN=    0.2000 screening length (either q_TF or 0.3 A-1)
   HFSCREENC=   0.2000 screening length for correlation (either q_TF or 0.3 A-1)
   HFRCUT  =    0.0000 spherical cutoff for potential kernel
   ALDAX   =    0.7500 LDA exchange part
   AGGAX   =    0.7500 GGA exchange part
   ALDAC   =    1.0000 LDA correlation
   AGGAC   =    1.0000 GGA correlation
   ENCUTFOCK=  -1.0 apply spherical cutoff to Coloumb kernel
   NBANDSGWLOW=     1    first orbital included in HF term
   NBLOCK_FOCK=    64    blocking factor in FOCK_ACC
 Linear response parameters
   LEPSILON=     F    determine dielectric tensor
   LRPA    =     F    only Hartree local field effects (RPA)
   LNABLA  =     F    use nabla operator in PAW spheres
   LVEL    =     F    velocity operator in full k-point grid
   LINTERFAST=   F  fast interpolation
   KINTER  =     0    interpolate to denser k-point grid
   CSHIFT  =0.1000    complex shift for real part using Kramers Kronig
   OMEGAMAX=  -1.0    maximum frequency
   DEG_THRESHOLD= 0.2000000E-02 threshold for treating states as degnerate
   RTIME   =   -0.100 relaxation time in fs
  (WPLASMAI=    0.000 imaginary part of plasma frequency in eV, 0.658/RTIME)
   DFIELD  = 0.0000000 0.0000000 0.0000000 field for delta impulse in time
 
 Orbital magnetization related:
   ORBITALMAG=     F  switch on orbital magnetization
   LCHIMAG   =     F  perturbation theory with respect to B field
   DQ        =  0.001000  dq finite difference perturbation B field
   LLRAUG    =     F  two centre corrections for induced B field



--------------------------------------------------------------------------------------------------------


 Static calculation
 charge density and potential will be updated during run
 non-spin polarized calculation
 Conjugate gradient for all bands (Freysoldt, et al. PRB 79, 241103 (2009))
 perform sub-space diagonalisation
    before iterative eigenvector-optimisation
 modified Broyden-mixing scheme, WC =      100.0
 initial mixing is a Kerker type mixing with AMIX =  0.4000 and BMIX =      1.0000
 Hartree-type preconditioning will be used
 using additional bands            6
 reciprocal scheme for non local part
 no Harris-corrections to forces 
 use gradient corrections 
 use of overlap-Matrix (Vanderbilt PP)
 Gauss-broadening in eV      SIGMA  =   0.05


--------------------------------------------------------------------------------------------------------


  energy-cutoff  :      650.00
  volume of cell :       17.02
      direct lattice vectors                 reciprocal lattice vectors
     0.000000000  2.041500000  2.041500000    -0.244917952  0.244917952  0.244917952
     2.041500000  0.000000000  2.041500000     0.244917952 -0.244917952  0.244917952
     2.041500000  2.041500000  0.000000000     0.244917952  0.244917952 -0.244917952

  length of vectors
     2.887116988  2.887116988  2.887116988     0.424210337  0.424210337  0.424210337


 
 old parameters found on file WAVECAR:
  energy-cutoff  :      650.00
  volume of cell :       17.02
      direct lattice vectors                 reciprocal lattice vectors
     0.000000000  2.041500000  2.041500000    -0.244917952  0.244917952  0.244917952
     2.041500000  0.000000000  2.041500000     0.244917952 -0.244917952  0.244917952
     2.041500000  2.041500000  0.000000000     0.244917952  0.244917952 -0.244917952

  length of vectors

 
 k-points in units of 2pi/SCALE and weight: Gamma-centered 3 3 3                    
   0.00000000  0.00000000  0.00000000       0.037
  -0.08163932  0.08163932  0.08163932       0.296
   0.00000000  0.00000000  0.16327863       0.222
   0.16327863 -0.16327863  0.00000000       0.444
 
 k-points in reciprocal lattice and weights: Gamma-centered 3 3 3                    
   0.00000000  0.00000000  0.00000000       0.037
   0.33333333  0.00000000  0.00000000       0.296
   0.33333333  0.33333333  0.00000000       0.222
  -0.33333333  0.33333333  0.00000000       0.444
 
 position of ions in fractional coordinates (direct lattice) 
   0.00000000  0.00000000  0.00000000
   0.50000000  0.50000000  0.50000000
 
 position of ions in cartesian coordinates  (Angst):
   0.00000000  0.00000000  0.00000000
   2.04150000  2.04150000  2.04150000
 


--------------------------------------------------------------------------------------------------------


 k-point  1 :   0.0000 0.0000 0.0000  plane waves:     645
 k-point  2 :   0.3333 0.0000 0.0000  plane waves:     622
 k-point  3 :   0.3333 0.3333 0.0000  plane waves:     640
 k-point  4 :  -0.3333 0.3333 0.0000  plane waves:     650

 maximum and minimum number of plane-waves per node :       168      153

 maximum number of plane-waves:       650
 maximum index in each direction: 
   IXMAX=    6   IYMAX=    6   IZMAX=    6
   IXMIN=   -6   IYMIN=   -6   IZMIN=   -6


 parallel 3D FFT for wavefunctions:
    minimum data exchange during FFTs selected (reduces bandwidth)
 parallel 3D FFT for charge:
    minimum data exchange during FFTs selected (reduces bandwidth)


 FFT grid for exact exchange (Hartree Fock) 
  NGX = 14; NGY = 14; NGZ = 14

 
 Radii for the augmentation spheres in the non-local exchange
 for species   1 augmentation radius   0.956 (default was   0.708)
       energy cutoff for augmentation   2600.0
 for species   2 augmentation radius   0.702 (default was   0.520)
       energy cutoff for augmentation   2600.0

 real space projection operators:
  total allocation   :         58.22 KBytes
  max/ min on nodes  :         18.07         10.76

 Maximum index for augmentation-charges in exchange          196
  SETUP_FOCK is finished

 total amount of memory used by VASP MPI-rank0    30849. kBytes
=======================================================================

   base      :      30000. kBytes
   nonl-proj :         64. kBytes
   fftplans  :        298. kBytes
   grid      :        406. kBytes
   one-center:          1. kBytes
   HF        :          1. kBytes
   nonlr-proj:         43. kBytes
   wavefun   :         36. kBytes
 
     INWAV:  cpu time    0.0639: real time    0.0641
 Broyden mixing: mesh for mixing (old mesh)
   NGX = 13   NGY = 13   NGZ = 13
  (NGX  = 48   NGY  = 48   NGZ  = 48)
  gives a total of   2197 points

 charge density for first step will be calculated from the start-wavefunctions


--------------------------------------------------------------------------------------------------------


 Maximum index for augmentation-charges          499 (set IRDMAX)


--------------------------------------------------------------------------------------------------------


 initial charge from wavefunction
 First call to EWALD:  gamma=   0.689
 Maximum number of real-space cells 3x 3x 3
 Maximum number of reciprocal cells 3x 3x 3

    FEWALD:  cpu time    0.0003: real time    0.0003


--------------------------------------- Iteration      1(   1)  ---------------------------------------


    POTLOK:  cpu time    0.0114: real time    0.0114
    SETDIJ:  cpu time    0.0160: real time    0.0161
    TRIAL :  cpu time    0.0407: real time    0.0450
    CORREC:  cpu time    0.0000: real time    0.0000
    CHARGE:  cpu time    0.0019: real time    0.0019
    --------------------------------------------
      LOOP:  cpu time    0.0701: real time    0.0751

 eigenvalue-minimisations  :     0
 total energy-change (2. order) :-0.6835631E+01  (-0.7493647E-02)
 number of electron       4.0000001 magnetization 
 augmentation part        0.9795417 magnetization 

 Free energy of the ion-electron system (eV)
  ---------------------------------------------------
  alpha Z        PSCENC =         2.37634638
  Ewald energy   TEWEN  =       -92.37838774
  -Hartree energ DENC   =       -37.03592967
  -exchange      EXHF   =        11.09698768
  -V(xc)+E(xc)   XCENC  =        11.59559023
  PAW double counting   =        87.46957375     -101.61792997
  entropy T*S    EENTRO =        -0.00000000
  eigenvalues    EBANDS =      -103.08309170
  atomic energy  EATOM  =       214.74120998
  ---------------------------------------------------
  free energy    TOTEN  =        -6.83563105 eV

  energy without entropy =       -6.83563105  energy(sigma->0) =       -6.83563105
  exchange ACFDT corr.  =         0.00000000  see jH, gK, PRB 81, 115126


--------------------------------------------------------------------------------------------------------




--------------------------------------- Iteration      1(   2)  ---------------------------------------


    POTLOK:  cpu time    0.0064: real time    0.0064
    SETDIJ:  cpu time    0.0163: real time    0.0163
    TRIAL :  cpu time    0.0313: real time    0.0314
    CORREC:  cpu time    0.0000: real time    0.0000
    CHARGE:  cpu time    0.0015: real time    0.0015
    --------------------------------------------
      LOOP:  cpu time    0.0557: real time    0.0558

 eigenvalue-minimisations  :     0
 total energy-change (2. order) :-0.5867498E-02  (-0.4520981E-02)
 number of electron       4.0000001 magnetization 
 augmentation part        0.9781892 magnetization 

 Free energy of the ion-electron system (eV)
  ---------------------------------------------------
  alpha Z        PSCENC =         2.37634638
  Ewald energy   TEWEN  =       -92.37838774
  -Hartree energ DENC   =       -37.03516005
  -exchange      EXHF   =        11.10300795
  -V(xc)+E(xc)   XCENC  =        11.59707909
  PAW double counting   =        87.56984350     -101.76106057
  entropy T*S    EENTRO =        -0.00000000
  eigenvalues    EBANDS =      -103.05437709
  atomic energy  EATOM  =       214.74120998
  ---------------------------------------------------
  free energy    TOTEN  =        -6.84149855 eV

  energy without entropy =       -6.84149855  energy(sigma->0) =       -6.84149855
  exchange ACFDT corr.  =         0.00000000  see jH, gK, PRB 81, 115126


--------------------------------------------------------------------------------------------------------




--------------------------------------- Iteration      1(   3)  ---------------------------------------


    POTLOK:  cpu time    0.0063: real time    0.0063
    SETDIJ:  cpu time    0.0155: real time    0.0155
    TRIAL :  cpu time    0.0311: real time    0.0312
    CORREC:  cpu time    0.0000: real time    0.0000
    CHARGE:  cpu time    0.0012: real time    0.0012
    --------------------------------------------
      LOOP:  cpu time    0.0543: real time    0.0544

 eigenvalue-minimisations  :     0
 total energy-change (2. order) :-0.3107999E-02  (-0.1477884E-02)
 number of electron       4.0000001 magnetization 
 augmentation part        0.9779265 magnetization 

 Free energy of the ion-electron system (eV)
  ---------------------------------------------------
  alpha Z        PSCENC =         2.37634638
  Ewald energy   TEWEN  =       -92.37838774
  -Hartree energ DENC   =       -37.02569027
  -exchange      EXHF   =        11.10881517
  -V(xc)+E(xc)   XCENC  =        11.59795233
  PAW double counting   =        87.63603037     -101.86758246
  entropy T*S    EENTRO =        -0.00000000
  eigenvalues    EBANDS =      -103.03330030
  atomic energy  EATOM  =       214.74120998
  ---------------------------------------------------
  free energy    TOTEN  =        -6.84460655 eV

  energy without entropy =       -6.84460655  energy(sigma->0) =       -6.84460655
  exchange ACFDT corr.  =         0.00000000  see jH, gK, PRB 81, 115126


--------------------------------------------------------------------------------------------------------




--------------------------------------- Iteration      1(   4)  ---------------------------------------


    POTLOK:  cpu time    0.0055: real time    0.0055
    SETDIJ:  cpu time    0.0154: real time    0.0154
    TRIAL :  cpu time    0.0310: real time    0.0311
    CORREC:  cpu time    0.0000: real time    0.0000
    CHARGE:  cpu time    0.0012: real time    0.0012
    --------------------------------------------
      LOOP:  cpu time    0.0532: real time    0.0533

 eigenvalue-minimisations  :     0
 total energy-change (2. order) :-0.9701015E-03  (-0.5709589E-03)
 number of electron       4.0000001 magnetization 
 augmentation part        0.9781459 magnetization 

 Free energy of the ion-electron system (eV)
  ---------------------------------------------------
  alpha Z        PSCENC =         2.37634638
  Ewald energy   TEWEN  =       -92.37838774
  -Hartree energ DENC   =       -37.01512029
  -exchange      EXHF   =        11.11315721
  -V(xc)+E(xc)   XCENC  =        11.59849823
  PAW double counting   =        87.61231408     -101.86788854
  entropy T*S    EENTRO =        -0.00000000
  eigenvalues    EBANDS =      -103.02570596
  atomic energy  EATOM  =       214.74120998
  ---------------------------------------------------
  free energy    TOTEN  =        -6.84557665 eV

  energy without entropy =       -6.84557665  energy(sigma->0) =       -6.84557665
  exchange ACFDT corr.  =         0.00000000  see jH, gK, PRB 81, 115126


--------------------------------------------------------------------------------------------------------




--------------------------------------- Iteration      1(   5)  ---------------------------------------


    POTLOK:  cpu time    0.0059: real time    0.0059
    SETDIJ:  cpu time    0.0153: real time    0.0154
    TRIAL :  cpu time    0.0310: real time    0.0311
    CORREC:  cpu time    0.0000: real time    0.0000
    CHARGE:  cpu time    0.0010: real time    0.0010
    --------------------------------------------
      LOOP:  cpu time    0.0534: real time    0.0535

 eigenvalue-minimisations  :     0
 total energy-change (2. order) :-0.4361584E-03  (-0.3460073E-03)
 number of electron       4.0000001 magnetization 
 augmentation part        0.9783140 magnetization 

 Free energy of the ion-electron system (eV)
  ---------------------------------------------------
  alpha Z        PSCENC =         2.37634638
  Ewald energy   TEWEN  =       -92.37838774
  -Hartree energ DENC   =       -37.01544260
  -exchange      EXHF   =        11.11695169
  -V(xc)+E(xc)   XCENC  =        11.59976072
  PAW double counting   =        87.53484285     -101.80362516
  entropy T*S    EENTRO =        -0.00000000
  eigenvalues    EBANDS =      -103.01766894
  atomic energy  EATOM  =       214.74120998
  ---------------------------------------------------
  free energy    TOTEN  =        -6.84601281 eV

  energy without entropy =       -6.84601281  energy(sigma->0) =       -6.84601281
  exchange ACFDT corr.  =         0.00000000  see jH, gK, PRB 81, 115126


--------------------------------------------------------------------------------------------------------




--------------------------------------- Iteration      1(   6)  ---------------------------------------


    POTLOK:  cpu time    0.0061: real time    0.0060
    SETDIJ:  cpu time    0.0153: real time    0.0153
    TRIAL :  cpu time    0.0309: real time    0.0310
    CORREC:  cpu time    0.0000: real time    0.0000
    CHARGE:  cpu time    0.0011: real time    0.0011
    --------------------------------------------
      LOOP:  cpu time    0.0537: real time    0.0538

 eigenvalue-minimisations  :     0
 total energy-change (2. order) :-0.2762520E-03  (-0.1724135E-03)
 number of electron       4.0000001 magnetization 
 augmentation part        0.9783701 magnetization 

 Free energy of the ion-electron system (eV)
  ---------------------------------------------------
  alpha Z        PSCENC =         2.37634638
  Ewald energy   TEWEN  =       -92.37838774
  -Hartree energ DENC   =       -37.02466882
  -exchange      EXHF   =        11.12028854
  -V(xc)+E(xc)   XCENC  =        11.60152103
  PAW double counting   =        87.46330687     -101.74030878
  entropy T*S    EENTRO =        -0.00000000
  eigenvalues    EBANDS =      -103.00559652
  atomic energy  EATOM  =       214.74120998
  ---------------------------------------------------
  free energy    TOTEN  =        -6.84628906 eV

  energy without entropy =       -6.84628906  energy(sigma->0) =       -6.84628906
  exchange ACFDT corr.  =         0.00000000  see jH, gK, PRB 81, 115126


--------------------------------------------------------------------------------------------------------




--------------------------------------- Iteration      1(   7)  ---------------------------------------


    POTLOK:  cpu time    0.0051: real time    0.0051
    SETDIJ:  cpu time    0.0155: real time    0.0155
    TRIAL :  cpu time    0.0308: real time    0.0309
    CORREC:  cpu time    0.0000: real time    0.0000
    CHARGE:  cpu time    0.0010: real time    0.0010
    --------------------------------------------
      LOOP:  cpu time    0.0524: real time    0.0525

 eigenvalue-minimisations  :     0
 total energy-change (2. order) :-0.1332236E-03  (-0.6942216E-04)
 number of electron       4.0000001 magnetization 
 augmentation part        0.9783594 magnetization 

 Free energy of the ion-electron system (eV)
  ---------------------------------------------------
  alpha Z        PSCENC =         2.37634638
  Ewald energy   TEWEN  =       -92.37838774
  -Hartree energ DENC   =       -37.03426144
  -exchange      EXHF   =        11.12267625
  -V(xc)+E(xc)   XCENC  =        11.60298106
  PAW double counting   =        87.41738967     -101.69906747
  entropy T*S    EENTRO =        -0.00000000
  eigenvalues    EBANDS =      -102.99530898
  atomic energy  EATOM  =       214.74120998
  ---------------------------------------------------
  free energy    TOTEN  =        -6.84642228 eV

  energy without entropy =       -6.84642228  energy(sigma->0) =       -6.84642228
  exchange ACFDT corr.  =         0.00000000  see jH, gK, PRB 81, 115126


--------------------------------------------------------------------------------------------------------




--------------------------------------- Iteration      1(   8)  ---------------------------------------


    POTLOK:  cpu time    0.0052: real time    0.0052
    SETDIJ:  cpu time    0.0158: real time    0.0158
    TRIAL :  cpu time    0.0308: real time    0.0309
    CORREC:  cpu time    0.0000: real time    0.0000
    CHARGE:  cpu time    0.0010: real time    0.0010
    --------------------------------------------
      LOOP:  cpu time    0.0528: real time    0.0530

 eigenvalue-minimisations  :     0
 total energy-change (2. order) :-0.5277564E-04  (-0.2696831E-04)
 number of electron       4.0000001 magnetization 
 augmentation part        0.9783112 magnetization 

 Free energy of the ion-electron system (eV)
  ---------------------------------------------------
  alpha Z        PSCENC =         2.37634638
  Ewald energy   TEWEN  =       -92.37838774
  -Hartree energ DENC   =       -37.04078614
  -exchange      EXHF   =        11.12412331
  -V(xc)+E(xc)   XCENC  =        11.60389875
  PAW double counting   =        87.39288947     -101.67684430
  entropy T*S    EENTRO =        -0.00000000
  eigenvalues    EBANDS =      -102.98892478
  atomic energy  EATOM  =       214.74120998
  ---------------------------------------------------
  free energy    TOTEN  =        -6.84647506 eV

  energy without entropy =       -6.84647506  energy(sigma->0) =       -6.84647506
  exchange ACFDT corr.  =         0.00000000  see jH, gK, PRB 81, 115126


--------------------------------------------------------------------------------------------------------




--------------------------------------- Iteration      1(   9)  ---------------------------------------


    POTLOK:  cpu time    0.0048: real time    0.0048
    SETDIJ:  cpu time    0.0159: real time    0.0159
    TRIAL :  cpu time    0.0309: real time    0.0315
    CORREC:  cpu time    0.0000: real time    0.0000
    CHARGE:  cpu time    0.0011: real time    0.0011
    --------------------------------------------
      LOOP:  cpu time    0.0529: real time    0.0534

 eigenvalue-minimisations  :     0
 total energy-change (2. order) :-0.2091619E-04  (-0.1171676E-04)
 number of electron       4.0000001 magnetization 
 augmentation part        0.9782507 magnetization 

 Free energy of the ion-electron system (eV)
  ---------------------------------------------------
  alpha Z        PSCENC =         2.37634638
  Ewald energy   TEWEN  =       -92.37838774
  -Hartree energ DENC   =       -37.04436820
  -exchange      EXHF   =        11.12492256
  -V(xc)+E(xc)   XCENC  =        11.60438538
  PAW double counting   =        87.38455168     -101.66960233
  entropy T*S    EENTRO =        -0.00000000
  eigenvalues    EBANDS =      -102.98555368
  atomic energy  EATOM  =       214.74120998
  ---------------------------------------------------
  free energy    TOTEN  =        -6.84649597 eV

  energy without entropy =       -6.84649597  energy(sigma->0) =       -6.84649597
  exchange ACFDT corr.  =         0.00000000  see jH, gK, PRB 81, 115126


--------------------------------------------------------------------------------------------------------




--------------------------------------- Iteration      1(  10)  ---------------------------------------


    POTLOK:  cpu time    0.0049: real time    0.0049
    SETDIJ:  cpu time    0.0157: real time    0.0157
    TRIAL :  cpu time    0.0308: real time    0.0309
    CORREC:  cpu time    0.0000: real time    0.0000
    CHARGE:  cpu time    0.0010: real time    0.0010
    --------------------------------------------
      LOOP:  cpu time    0.0525: real time    0.0526

 eigenvalue-minimisations  :     0
 total energy-change (2. order) :-0.9312055E-05  (-0.5206109E-05)
 number of electron       4.0000001 magnetization 
 augmentation part        0.9781985 magnetization 

 Free energy of the ion-electron system (eV)
  ---------------------------------------------------
  alpha Z        PSCENC =         2.37634638
  Ewald energy   TEWEN  =       -92.37838774
  -Hartree energ DENC   =       -37.04616759
  -exchange      EXHF   =        11.12536621
  -V(xc)+E(xc)   XCENC  =        11.60463110
  PAW double counting   =        87.38652912     -101.67220672
  entropy T*S    EENTRO =        -0.00000000
  eigenvalues    EBANDS =      -102.98382602
  atomic energy  EATOM  =       214.74120998
  ---------------------------------------------------
  free energy    TOTEN  =        -6.84650529 eV

  energy without entropy =       -6.84650529  energy(sigma->0) =       -6.84650529
  exchange ACFDT corr.  =         0.00000000  see jH, gK, PRB 81, 115126


--------------------------------------------------------------------------------------------------------




--------------------------------------- Iteration      1(  11)  ---------------------------------------


    POTLOK:  cpu time    0.0049: real time    0.0049
    SETDIJ:  cpu time    0.0167: real time    0.0167
    TRIAL :  cpu time    0.0346: real time    0.0348
    CORREC:  cpu time    0.0000: real time    0.0000
    CHARGE:  cpu time    0.0010: real time    0.0010
    --------------------------------------------
      LOOP:  cpu time    0.0573: real time    0.0574

 eigenvalue-minimisations  :     0
 total energy-change (2. order) :-0.4115479E-05  (-0.2099810E-05)
 number of electron       4.0000001 magnetization 
 augmentation part        0.9781617 magnetization 

 Free energy of the ion-electron system (eV)
  ---------------------------------------------------
  alpha Z        PSCENC =         2.37634638
  Ewald energy   TEWEN  =       -92.37838774
  -Hartree energ DENC   =       -37.04719125
  -exchange      EXHF   =        11.12564358
  -V(xc)+E(xc)   XCENC  =        11.60477665
  PAW double counting   =        87.39266053     -101.67877765
  entropy T*S    EENTRO =        -0.00000000
  eigenvalues    EBANDS =      -102.98278989
  atomic energy  EATOM  =       214.74120998
  ---------------------------------------------------
  free energy    TOTEN  =        -6.84650940 eV

  energy without entropy =       -6.84650940  energy(sigma->0) =       -6.84650940
  exchange ACFDT corr.  =         0.00000000  see jH, gK, PRB 81, 115126


--------------------------------------------------------------------------------------------------------




--------------------------------------- Iteration      1(  12)  ---------------------------------------


    POTLOK:  cpu time    0.0052: real time    0.0052
    SETDIJ:  cpu time    0.0158: real time    0.0158
    TRIAL :  cpu time    0.0307: real time    0.0308
    CORREC:  cpu time    0.0000: real time    0.0000
    CHARGE:  cpu time    0.0010: real time    0.0010
    --------------------------------------------
      LOOP:  cpu time    0.0528: real time    0.0530

 eigenvalue-minimisations  :     0
 total energy-change (2. order) :-0.1642593E-05  (-0.8007895E-06)
 number of electron       4.0000001 magnetization 
 augmentation part        0.9781391 magnetization 

 Free energy of the ion-electron system (eV)
  ---------------------------------------------------
  alpha Z        PSCENC =         2.37634638
  Ewald energy   TEWEN  =       -92.37838774
  -Hartree energ DENC   =       -37.04796842
  -exchange      EXHF   =        11.12584164
  -V(xc)+E(xc)   XCENC  =        11.60488773
  PAW double counting   =        87.39851408     -101.68495358
  entropy T*S    EENTRO =        -0.00000000
  eigenvalues    EBANDS =      -102.98200113
  atomic energy  EATOM  =       214.74120998
  ---------------------------------------------------
  free energy    TOTEN  =        -6.84651104 eV

  energy without entropy =       -6.84651104  energy(sigma->0) =       -6.84651104
  exchange ACFDT corr.  =         0.00000000  see jH, gK, PRB 81, 115126


--------------------------------------------------------------------------------------------------------




--------------------------------------- Iteration      1(  13)  ---------------------------------------


    POTLOK:  cpu time    0.0048: real time    0.0048
    SETDIJ:  cpu time    0.0157: real time    0.0157
    TRIAL :  cpu time    0.0307: real time    0.0309
    CORREC:  cpu time    0.0000: real time    0.0000
    EDDIAG:  cpu time    0.0298: real time    0.0300
    CHARGE:  cpu time    0.0010: real time    0.0010
    --------------------------------------------
      LOOP:  cpu time    0.0821: real time    0.0825

 eigenvalue-minimisations  :     0
 total energy-change (2. order) :-0.6244427E-06  (-0.3047808E-06)
 number of electron       4.0000001 magnetization 
 augmentation part        0.9781268 magnetization 

 Free energy of the ion-electron system (eV)
  ---------------------------------------------------
  alpha Z        PSCENC =         2.37634638
  Ewald energy   TEWEN  =       -92.37838774
  -Hartree energ DENC   =       -37.04858604
  -exchange      EXHF   =        11.12607584
  -V(xc)+E(xc)   XCENC  =        11.60497356
  PAW double counting   =        87.40246182     -101.68912198
  entropy T*S    EENTRO =        -0.00000000
  eigenvalues    EBANDS =      -102.98139053
  atomic energy  EATOM  =       214.74120998
  ---------------------------------------------------
  free energy    TOTEN  =        -6.84651167 eV

  energy without entropy =       -6.84651167  energy(sigma->0) =       -6.84651167
  exchange ACFDT corr.  =         0.00000000  see jH, gK, PRB 81, 115126


--------------------------------------------------------------------------------------------------------


  average scaling for gradient   0.9763


 average (electrostatic) potential at core
  the test charge radii are     0.7079  0.5201
  (the norm of the test charge is              1.0000)
       1 -57.9183       2 -30.0769
 
 
 
 E-fermi :  -1.6240     XC(G=0):  -6.9810     alpha+bet :-10.4128


 k-point     1 :       0.0000    0.0000    0.0000
  band No.  band energies     occupation 
      1     -48.1911      2.00000
      2      -6.7320      2.00000
      3      16.3438      0.00000
      4      18.0529      0.00000
      5      18.0529      0.00000
      6      18.0529      0.00000
      7      22.5457      0.00000
      8      22.5457      0.00000

 k-point     2 :       0.3333    0.0000    0.0000
  band No.  band energies     occupation 
      1     -48.1597      2.00000
      2      -4.7146      2.00000
      3       7.4343      0.00000
      4      14.5497      0.00000
      5      16.6075      0.00000
      6      16.6076      0.00000
      7      20.6749      0.00000
      8      20.6749      0.00000

 k-point     3 :       0.3333    0.3333    0.0000
  band No.  band energies     occupation 
      1     -48.1514      2.00000
      2      -3.6458      2.00000
      3       7.5251      0.00000
      4      12.0333      0.00000
      5      12.0333      0.00000
      6      15.0910      0.00000
      7      17.3888      0.00000
      8      29.9067      0.00000

 k-point     4 :      -0.3333    0.3333    0.0000
  band No.  band energies     occupation 
      1     -48.1410      2.00000
      2      -1.9882      2.00000
      3       5.2436      0.00000
      4       7.3909      0.00000
      5      13.0407      0.00000
      6      16.1035      0.00000
      7      24.0017      0.00000
      8      26.5704      0.00000


--------------------------------------------------------------------------------------------------------


 soft charge-density along one line, spin component           1
         0         1         2         3         4         5         6         7         8         9
 total charge-density along one line
 
 pseudopotential strength for first ion, spin component:           1
-37.466   4.043   0.000  -0.000   0.000
  4.043 -10.584   0.000  -0.000   0.000
  0.000   0.000   0.026   0.000   0.000
 -0.000  -0.000   0.000   0.026   0.000
  0.000   0.000   0.000   0.000   0.026
 total augmentation occupancy for first ion, spin component:           1
  1.998  -0.032  -0.000   0.000  -0.000
 -0.032   0.641  -0.000   0.000  -0.000
 -0.000  -0.000   0.029   0.000   0.000
  0.000   0.000   0.000   0.029   0.000
 -0.000  -0.000   0.000   0.000   0.029


------------------------ aborting loop because EDIFF is reached ----------------------------------------


    FORLOC:  cpu time    0.0005: real time    0.0005
    FORHF :  cpu time    0.0366: real time    0.0366
    FORNL :  cpu time    0.0003: real time    0.0003
    OFIELD:  cpu time    0.0159: real time    0.0159

 VOLUME and BASIS-vectors are now :
 -----------------------------------------------------------------------------
  energy-cutoff  :      650.00
  volume of cell :       17.02
      direct lattice vectors                 reciprocal lattice vectors
     0.000000000  2.041500000  2.041500000    -0.244917952  0.244917952  0.244917952
     2.041500000  0.000000000  2.041500000     0.244917952 -0.244917952  0.244917952
     2.041500000  2.041500000  0.000000000     0.244917952  0.244917952 -0.244917952

  length of vectors
     2.887116988  2.887116988  2.887116988     0.424210337  0.424210337  0.424210337


 FORCES acting on ions:
    Electron-Ion                     Ewald-Force                    Non-Local-Force
 -----------------------------------------------------------------------------------------------
   -.273E-06 -.696E-07 0.103E-06   -.256E-15 -.338E-15 -.163E-15   0.265E-22 -.265E-22 -.331E-22
   -.908E-09 0.324E-10 0.761E-09   0.104E-15 0.318E-15 0.139E-15   0.207E-24 0.000E+00 0.517E-24
 -----------------------------------------------------------------------------------------------
   -.274E-06 -.696E-07 0.104E-06   -.153E-15 -.197E-16 -.234E-16   0.267E-22 -.265E-22 -.326E-22
 
 
 POSITION                                       TOTAL-FORCE (eV/Angst)
 -----------------------------------------------------------------------------------
      0.00000      0.00000      0.00000         0.000000      0.000000      0.000000
      2.04150      2.04150      2.04150         0.000000      0.000000     -0.000000
 -----------------------------------------------------------------------------------
    total drift:                               -0.000000     -0.000000      0.000000


--------------------------------------------------------------------------------------------------------



  FREE ENERGIE OF THE ION-ELECTRON SYSTEM (eV)
  ---------------------------------------------------
  free  energy   TOTEN  =        -6.84651167 eV

  energy  without entropy=       -6.84651167  energy(sigma->0) =       -6.84651167
 


--------------------------------------------------------------------------------------------------------


    POTLOK:  cpu time    0.0206: real time    0.0206


--------------------------------------------------------------------------------------------------------


     LOOP+:  cpu time    0.8186: real time    0.8281
    4ORBIT:  cpu time    0.0000: real time    0.0000

 total amount of memory used by VASP MPI-rank0    30912. kBytes
=======================================================================

   base      :      30000. kBytes
   nonl-proj :         64. kBytes
   fftplans  :        298. kBytes
   grid      :        406. kBytes
   one-center:          1. kBytes
   HF        :          1. kBytes
   nonlr-proj:        106. kBytes
   wavefun   :         36. kBytes
 
  
  
 General timing and accounting informations for this job:
 ========================================================
  
                  Total CPU time used (sec):        2.235
                            User time (sec):        1.974
                          System time (sec):        0.261
                         Elapsed time (sec):        2.536
  
                   Maximum memory used (kb):      240956.
                   Average memory used (kb):           0.
  
                          Minor page faults:        33369
                          Major page faults:         2497
                 Voluntary context switches:          226
