<?xml version="1.0" encoding="ISO-8859-1"?>
<modeling>
 <generator>
  <i name="program" type="string">vasp </i>
  <i name="version" type="string">5.4.4.18Apr17-6-g9f103f2a35  </i>
  <i name="subversion" type="string">(build Mar 10 2026 18:13:51) complex            parallel </i>
  <i name="platform" type="string">LinuxIFC </i>
  <i name="date" type="string">2026 06 25 </i>
  <i name="time" type="string">14:53:01 </i>
 </generator>
 <incar>
  <i type="string" name="SYSTEM"> LiH-HSE06-k333-vasp  (HSE06)</i>
  <i type="int" name="ISTART">     1</i>
  <i type="string" name="PREC">accurate</i>
  <i type="string" name="ALGO"> Damped</i>
  <i type="int" name="ICHARG">     0</i>
  <i type="int" name="NELM">   120</i>
  <i name="EDIFF">      0.00000100</i>
  <i name="ENCUT">    650.00000000</i>
  <i type="logical" name="LREAL"> F  </i>
  <i name="TIME">      0.40000000</i>
  <i type="int" name="ISMEAR">     0</i>
  <i name="SIGMA">      0.05000000</i>
  <i type="logical" name="LWAVE"> F  </i>
  <i type="logical" name="LCHARG"> F  </i>
  <v type="int" name="KPOINT_BSE">    -1     0     0     0</v>
  <i type="int" name="NELM">   120</i>
  <i type="logical" name="LHFCALC"> T  </i>
  <i name="HFSCREEN">      0.20000000</i>
  <i name="AEXX">      0.25000000</i>
  <i type="string" name="PRECFOCK">fast</i>
 </incar>
 <structure name="primitive_cell" >
  <crystal>
   <varray name="basis" >
    <v>       0.00000000       2.04150000       2.04150000 </v>
    <v>       2.04150000       0.00000000       2.04150000 </v>
    <v>       2.04150000       2.04150000       0.00000000 </v>
   </varray>
   <i name="volume">     17.01680995 </i>
   <varray name="rec_basis" >
    <v>      -0.24491795       0.24491795       0.24491795 </v>
    <v>       0.24491795      -0.24491795       0.24491795 </v>
    <v>       0.24491795       0.24491795      -0.24491795 </v>
   </varray>
  </crystal>
  <varray name="positions" >
   <v>       0.00000000       0.00000000       0.00000000 </v>
   <v>      -0.50000000      -0.50000000      -0.50000000 </v>
  </varray>
 </structure>
 <varray name="primitive_index" >
  <v type="int" >        1 </v>
  <v type="int" >        2 </v>
 </varray>
 <kpoints>
  <generation param="Gamma">
   <v type="int" name="divisions">       3        3        3 </v>
   <v name="usershift">      0.00000000       0.00000000       0.00000000 </v>
   <v name="genvec1">      0.33333333       0.00000000       0.00000000 </v>
   <v name="genvec2">      0.00000000       0.33333333       0.00000000 </v>
   <v name="genvec3">      0.00000000       0.00000000       0.33333333 </v>
   <v name="shift">      0.00000000       0.00000000       0.00000000 </v>
  </generation>
  <varray name="kpointlist" >
   <v>       0.00000000       0.00000000       0.00000000 </v>
   <v>       0.33333333       0.00000000       0.00000000 </v>
   <v>       0.33333333       0.33333333       0.00000000 </v>
   <v>      -0.33333333       0.33333333       0.00000000 </v>
  </varray>
  <varray name="weights" >
   <v>       0.03703704 </v>
   <v>       0.29629630 </v>
   <v>       0.22222222 </v>
   <v>       0.44444444 </v>
  </varray>
 </kpoints>
 <parameters>
  <separator name="general" >
   <i type="string" name="SYSTEM">LiH-HSE06-k333-vasp  (HSE06)</i>
   <i type="logical" name="LCOMPAT"> F  </i>
  </separator>
  <separator name="electronic" >
   <i type="string" name="PREC">accura</i>
   <i name="ENMAX">    650.00000000</i>
   <i name="ENAUG">    628.94500000</i>
   <i name="EDIFF">      0.00000100</i>
   <i type="int" name="IALGO">    53</i>
   <i type="int" name="IWAVPR">    10</i>
   <i type="int" name="NBANDS">     8</i>
   <i name="NELECT">      4.00000000</i>
   <i type="int" name="TURBO">     0</i>
   <i type="int" name="IRESTART">     0</i>
   <i type="int" name="NREBOOT">     0</i>
   <i type="int" name="NMIN">     0</i>
   <i name="EREF">      0.00000000</i>
   <separator name="electronic smearing" >
    <i type="int" name="ISMEAR">     0</i>
    <i name="SIGMA">      0.05000000</i>
    <i name="KSPACING">      0.50000000</i>
    <i type="logical" name="KGAMMA"> T  </i>
   </separator>
   <separator name="electronic projectors" >
    <i type="logical" name="LREAL"> F  </i>
    <v name="ROPT">      0.00000000      0.00000000</v>
    <i type="int" name="LMAXPAW">  -100</i>
    <i type="int" name="LMAXMIX">     2</i>
    <i type="logical" name="NLSPLINE"> F  </i>
   </separator>
   <separator name="electronic startup" >
    <i type="int" name="ISTART">     1</i>
    <i type="int" name="ICHARG">     0</i>
    <i type="int" name="INIWAV">     1</i>
   </separator>
   <separator name="electronic spin" >
    <i type="int" name="ISPIN">     1</i>
    <i type="logical" name="LNONCOLLINEAR"> F  </i>
    <v name="MAGMOM">      1.00000000      1.00000000</v>
    <i name="NUPDOWN">     -1.00000000</i>
    <i type="logical" name="LSORBIT"> F  </i>
    <v name="SAXIS">      0.00000000      0.00000000      1.00000000</v>
    <i type="logical" name="LSPIRAL"> F  </i>
    <v name="QSPIRAL">      0.00000000      0.00000000      0.00000000</v>
    <i type="logical" name="LZEROZ"> F  </i>
   </separator>
   <separator name="electronic exchange-correlation" >
    <i type="logical" name="LASPH"> F  </i>
    <i type="logical" name="LMETAGGA"> F  </i>
   </separator>
   <separator name="electronic convergence" >
    <i type="int" name="NELM">   120</i>
    <i type="int" name="NELMDL">     0</i>
    <i type="int" name="NELMIN">     2</i>
    <i name="ENINI">    650.00000000</i>
    <separator name="electronic convergence detail" >
     <i type="logical" name="LDIAG"> T  </i>
     <i type="logical" name="LSUBROT"> F  </i>
     <i name="WEIMIN">      0.00000000</i>
     <i name="EBREAK">      0.00000003</i>
     <i name="DEPER">      0.30000000</i>
     <i type="int" name="NRMM">     4</i>
     <i name="TIME">      0.40000000</i>
    </separator>
   </separator>
   <separator name="electronic mixer" >
    <i name="AMIX">      0.40000000</i>
    <i name="BMIX">      1.00000000</i>
    <i name="AMIN">      0.10000000</i>
    <i name="AMIX_MAG">      1.60000000</i>
    <i name="BMIX_MAG">      1.00000000</i>
    <separator name="electronic mixer details" >
     <i type="int" name="IMIX">     4</i>
     <i type="logical" name="MIXFIRST"> F  </i>
     <i type="int" name="MAXMIX">   -45</i>
     <i name="WC">    100.00000000</i>
     <i type="int" name="INIMIX">     1</i>
     <i type="int" name="MIXPRE">     1</i>
     <i type="int" name="MREMOVE">     5</i>
    </separator>
   </separator>
   <separator name="electronic dipolcorrection" >
    <i type="logical" name="LDIPOL"> F  </i>
    <i type="logical" name="LMONO"> F  </i>
    <i type="int" name="IDIPOL">     0</i>
    <i name="EPSILON">      1.00000000</i>
    <v name="DIPOL">   -100.00000000   -100.00000000   -100.00000000</v>
    <i name="EFIELD">      0.00000000</i>
   </separator>
  </separator>
  <separator name="grids" >
   <i type="int" name="NGX">    24</i>
   <i type="int" name="NGY">    24</i>
   <i type="int" name="NGZ">    24</i>
   <i type="int" name="NGXF">    48</i>
   <i type="int" name="NGYF">    48</i>
   <i type="int" name="NGZF">    48</i>
   <i type="logical" name="ADDGRID"> F  </i>
  </separator>
  <separator name="ionic" >
   <i type="int" name="NSW">     0</i>
   <i type="int" name="IBRION">    -1</i>
   <i type="int" name="MDALGO">     0</i>
   <i type="int" name="ISIF">     0</i>
   <i name="PSTRESS">      0.00000000</i>
   <i name="EDIFFG">      0.00001000</i>
   <i type="int" name="NFREE">     0</i>
   <i name="POTIM">      0.50000000</i>
   <i name="SMASS">     -3.00000000</i>
   <i name="SCALEE">      1.00000000</i>
  </separator>
  <separator name="ionic md" >
   <i name="TEBEG">      0.00010000</i>
   <i name="TEEND">      0.00010000</i>
   <i type="int" name="NBLOCK">     1</i>
   <i type="int" name="KBLOCK">     1</i>
   <i type="int" name="NPACO">   256</i>
   <i name="APACO">     16.00000000</i>
  </separator>
  <separator name="symmetry" >
   <i type="int" name="ISYM">     3</i>
   <i name="SYMPREC">      0.00001000</i>
  </separator>
  <separator name="dos" >
   <i type="int" name="LORBIT">     0</i>
   <v name="RWIGS">     -1.00000000     -1.00000000</v>
   <i type="int" name="NEDOS">   301</i>
   <i name="EMIN">     10.00000000</i>
   <i name="EMAX">    -10.00000000</i>
   <i name="EFERMI">      0.00000000</i>
  </separator>
  <separator name="writing" >
   <i type="int" name="NWRITE">     2</i>
   <i type="logical" name="LWAVE"> F  </i>
   <i type="logical" name="LDOWNSAMPLE"> F  </i>
   <i type="logical" name="LCHARG"> F  </i>
   <i type="logical" name="LPARD"> F  </i>
   <i type="logical" name="LVTOT"> F  </i>
   <i type="logical" name="LVHAR"> F  </i>
   <i type="logical" name="LELF"> F  </i>
   <i type="logical" name="LOPTICS"> F  </i>
   <v name="STM">      0.00000000      0.00000000      0.00000000      0.00000000      0.00000000      0.00000000      0.00000000</v>
  </separator>
  <separator name="performance" >
   <i type="int" name="NPAR">     8</i>
   <i type="int" name="NSIM">     4</i>
   <i type="int" name="NBLK">    -1</i>
   <i type="logical" name="LPLANE"> T  </i>
   <i type="logical" name="LSCALAPACK"> T  </i>
   <i type="logical" name="LSCAAWARE"> F  </i>
   <i type="logical" name="LSCALU"> F  </i>
   <i type="logical" name="LASYNC"> F  </i>
   <i type="logical" name="LORBITALREAL"> F  </i>
  </separator>
  <separator name="miscellaneous" >
   <i type="int" name="IDIOT">     3</i>
   <i type="int" name="ISPECIAL">     0</i>
   <i type="logical" name="LMUSIC"> F  </i>
   <v name="POMASS">      7.01000000      1.00000000</v>
   <v name="DARWINR">      0.00000000      0.00000000</v>
   <v name="DARWINV">      1.00000000      1.00000000</v>
   <i type="logical" name="LCORR"> T  </i>
  </separator>
  <i type="logical" name="GGA_COMPAT"> T  </i>
  <i type="logical" name="LBERRY"> F  </i>
  <i type="int" name="ICORELEVEL">     0</i>
  <i type="logical" name="LDAU"> F  </i>
  <i type="int" name="I_CONSTRAINED_M">     0</i>
  <separator name="electronic exchange-correlation" >
   <i type="string" name="GGA">--</i>
   <i type="int" name="VOSKOWN">     0</i>
   <i type="logical" name="LHFCALC"> T  </i>
   <i type="string" name="PRECFOCK">fast</i>
   <i type="logical" name="LSYMGRAD"> F  </i>
   <i type="logical" name="LHFONE"> F  </i>
   <i type="logical" name="LRHFCALC"> F  </i>
   <i type="logical" name="LTHOMAS"> F  </i>
   <i type="logical" name="LMODELHF"> F  </i>
   <i name="ENCUT4O">     -1.00000000</i>
   <i type="int" name="EXXOEP">     0</i>
   <i type="int" name="FOURORBIT">     0</i>
   <i name="AEXX">      0.25000000</i>
   <i name="HFALPHA">     -1.00000000</i>
   <i name="MCALPHA">      0.00000000</i>
   <i name="ALDAX">      0.75000000</i>
   <i name="AGGAX">      0.75000000</i>
   <i name="ALDAC">      1.00000000</i>
   <i name="AGGAC">      1.00000000</i>
   <i type="int" name="NKREDX">     1</i>
   <i type="int" name="NKREDY">     1</i>
   <i type="int" name="NKREDZ">     1</i>
   <i type="logical" name="SHIFTRED"> F  </i>
   <i type="logical" name="ODDONLY"> F  </i>
   <i type="logical" name="EVENONLY"> F  </i>
   <i type="int" name="LMAXFOCK">     4</i>
   <i type="int" name="NMAXFOCKAE">     1</i>
   <i type="logical" name="LFOCKAEDFT"> F  </i>
   <i name="HFSCREEN">      0.20000000</i>
   <i name="HFSCREENC">      0.20000000</i>
   <i type="int" name="NBANDSGWLOW">     1</i>
  </separator>
  <separator name="vdW DFT" >
   <i type="logical" name="LUSE_VDW"> F  </i>
   <i name="Zab_VDW">     -0.84910000</i>
   <i name="PARAM1">      0.12340000</i>
   <i name="PARAM2">      1.00000000</i>
   <i name="PARAM3">      0.00000000</i>
  </separator>
  <separator name="model GW" >
   <i type="int" name="MODEL_GW">     0</i>
   <i name="MODEL_EPS0">      5.10504298</i>
   <i name="MODEL_ALPHA">      1.00000000</i>
  </separator>
  <separator name="linear response parameters" >
   <i type="logical" name="LEPSILON"> F  </i>
   <i type="logical" name="LRPA"> F  </i>
   <i type="logical" name="LNABLA"> F  </i>
   <i type="logical" name="LVEL"> F  </i>
   <i type="int" name="KINTER">     0</i>
   <i name="CSHIFT">      0.10000000</i>
   <i name="OMEGAMAX">     -1.00000000</i>
   <i name="DEG_THRESHOLD">      0.00200000</i>
   <i name="RTIME">     -0.10000000</i>
   <i name="WPLASMAI">      0.00000000</i>
   <v name="DFIELD">      0.00000000      0.00000000      0.00000000</v>
   <v name="WPLASMA">      0.00000000      0.00000000      0.00000000      0.00000000      0.00000000      0.00000000      0.00000000      0.00000000      0.00000000</v>
  </separator>
  <separator name="orbital magnetization" >
   <i type="logical" name="NUCIND"> F  </i>
   <v name="MAGPOS">      0.00000000      0.00000000      0.00000000</v>
   <i type="logical" name="LNICSALL"> T  </i>
   <i type="logical" name="ORBITALMAG"> F  </i>
   <i type="logical" name="LMAGBLOCH"> F  </i>
   <i type="logical" name="LCHIMAG"> F  </i>
   <i type="logical" name="LGAUGE"> T  </i>
   <i type="int" name="MAGATOM">     0</i>
   <v name="MAGDIPOL">      0.00000000      0.00000000      0.00000000</v>
   <v name="AVECCONST">      0.00000000      0.00000000      0.00000000</v>
  </separator>
  <separator name="response functions" >
   <i type="logical" name="LADDER"> F  </i>
   <i type="logical" name="LRPAFORCE"> F  </i>
   <i type="logical" name="LFXC"> F  </i>
   <i type="logical" name="LHARTREE"> T  </i>
   <i type="int" name="IBSE">     0</i>
   <v type="int" name="KPOINT">    -1     0     0     0</v>
   <i type="logical" name="LTCTE"> F  </i>
   <i type="logical" name="LTETE"> F  </i>
   <i type="logical" name="LTRIPLET"> F  </i>
   <i type="logical" name="LFXCEPS"> F  </i>
   <i type="logical" name="LFXHEG"> F  </i>
   <i type="int" name="NATURALO">     2</i>
   <i type="logical" name="L2ORDER"> F  </i>
   <i type="logical" name="LMP2LT"> F  </i>
   <i type="logical" name="LUSEW"> F  </i>
   <i name="ENCUTGW">     -2.00000000</i>
   <i name="ENCUTGWSOFT">     -2.00000000</i>
   <i name="ENCUTLF">     -1.00000000</i>
   <i type="int" name="LMAXMP2">    -1</i>
   <i name="SCISSOR">      0.00000000</i>
   <i type="int" name="NOMEGA">     0</i>
   <i type="int" name="NOMEGAR">     0</i>
   <i type="int" name="NBANDSGW">    -1</i>
   <i type="int" name="NBANDSO">    -1</i>
   <i type="int" name="NBANDSV">    -1</i>
   <i type="int" name="NELM">   120</i>
   <i type="int" name="NELMHF">     1</i>
   <i type="int" name="DIM">     3</i>
   <i type="int" name="ANTIRES">     0</i>
   <i name="OMEGAMAX">    -30.00000000</i>
   <i name="OMEGAMIN">    -30.00000000</i>
   <i name="OMEGATL">   -200.00000000</i>
   <i type="int" name="OMEGAGRID">   140</i>
   <i name="CSHIFT">     -0.10000000</i>
   <i type="logical" name="SELFENERGY"> F  </i>
   <i type="logical" name="LSPECTRAL"> F  </i>
   <i type="logical" name="LSPECTRALGW"> F  </i>
   <i type="logical" name="LSINGLES"> F  </i>
   <i type="logical" name="LFERMIGW"> F  </i>
   <i type="logical" name="ODDONLYGW"> F  </i>
   <i type="logical" name="EVENONLYGW"> F  </i>
   <i type="int" name="NKREDLFX">     1</i>
   <i type="int" name="NKREDLFY">     1</i>
   <i type="int" name="NKREDLFZ">     1</i>
   <i type="int" name="MAXMEM">  2800</i>
   <i type="int" name="TELESCOPE">     0</i>
   <i type="int" name="TAUPAR">     1</i>
   <i type="int" name="OMEGAPAR">    -1</i>
   <i name="LAMBDA">      1.00000000</i>
  </separator>
  <separator name="External order field" >
   <i name="OFIELD_KAPPA">      0.00000000</i>
   <v name="OFIELD_K">      0.00000000      0.00000000      0.00000000</v>
   <i name="OFIELD_Q6_NEAR">      0.00000000</i>
   <i name="OFIELD_Q6_FAR">      0.00000000</i>
   <i name="OFIELD_A">      0.00000000</i>
  </separator>
 </parameters>
 <atominfo>
  <atoms>       2 </atoms>
  <types>       2 </types>
  <array name="atoms" >
   <dimension dim="1">ion</dimension>
   <field type="string">element</field>
   <field type="int">atomtype</field>
   <set>
    <rc><c>Li</c><c>   1</c></rc>
    <rc><c>H </c><c>   2</c></rc>
   </set>
  </array>
  <array name="atomtypes" >
   <dimension dim="1">type</dimension>
   <field type="int">atomspertype</field>
   <field type="string">element</field>
   <field>mass</field>
   <field>valence</field>
   <field type="string">pseudopotential</field>
   <set>
    <rc><c>   1</c><c>Li</c><c>      7.01000000</c><c>      3.00000000</c><c>  PAW_PBE Li_sv 10Sep2004               </c></rc>
    <rc><c>   1</c><c>H </c><c>      1.00000000</c><c>      1.00000000</c><c>  PAW_PBE H 15Jun2001                   </c></rc>
   </set>
  </array>
 </atominfo>
 <structure name="initialpos" >
  <crystal>
   <varray name="basis" >
    <v>       0.00000000       2.04150000       2.04150000 </v>
    <v>       2.04150000       0.00000000       2.04150000 </v>
    <v>       2.04150000       2.04150000       0.00000000 </v>
   </varray>
   <i name="volume">     17.01680995 </i>
   <varray name="rec_basis" >
    <v>      -0.24491795       0.24491795       0.24491795 </v>
    <v>       0.24491795      -0.24491795       0.24491795 </v>
    <v>       0.24491795       0.24491795      -0.24491795 </v>
   </varray>
  </crystal>
  <varray name="positions" >
   <v>       0.00000000       0.00000000       0.00000000 </v>
   <v>       0.50000000       0.50000000       0.50000000 </v>
  </varray>
 </structure>
 <calculation>
  <scstep>
   <time name="total">    0.07    0.08</time>
   <energy>
    <i name="alphaZ">      2.37634638 </i>
    <i name="ewald">    -92.37838774 </i>
    <i name="hartreedc">    -37.03592967 </i>
    <i name="XCdc">     11.59559023 </i>
    <i name="pawpsdc">     87.46957375 </i>
    <i name="pawaedc">   -101.61792997 </i>
    <i name="eentropy">     -0.00000000 </i>
    <i name="bandstr">   -103.08309170 </i>
    <i name="atom">    214.74120998 </i>
    <i name="e_fr_energy">     -6.83563105 </i>
    <i name="e_wo_entrp">     -6.83563105 </i>
    <i name="e_0_energy">     -6.83563105 </i>
   </energy>
  </scstep>
  <scstep>
   <time name="total">    0.06    0.06</time>
   <energy>
    <i name="e_fr_energy">     -6.84149855 </i>
    <i name="e_wo_entrp">     -6.84149855 </i>
    <i name="e_0_energy">     -6.84149855 </i>
   </energy>
  </scstep>
  <scstep>
   <time name="total">    0.05    0.05</time>
   <energy>
    <i name="e_fr_energy">     -6.84460655 </i>
    <i name="e_wo_entrp">     -6.84460655 </i>
    <i name="e_0_energy">     -6.84460655 </i>
   </energy>
  </scstep>
  <scstep>
   <time name="total">    0.05    0.05</time>
   <energy>
    <i name="e_fr_energy">     -6.84557665 </i>
    <i name="e_wo_entrp">     -6.84557665 </i>
    <i name="e_0_energy">     -6.84557665 </i>
   </energy>
  </scstep>
  <scstep>
   <time name="total">    0.05    0.05</time>
   <energy>
    <i name="e_fr_energy">     -6.84601281 </i>
    <i name="e_wo_entrp">     -6.84601281 </i>
    <i name="e_0_energy">     -6.84601281 </i>
   </energy>
  </scstep>
  <scstep>
   <time name="total">    0.05    0.05</time>
   <energy>
    <i name="e_fr_energy">     -6.84628906 </i>
    <i name="e_wo_entrp">     -6.84628906 </i>
    <i name="e_0_energy">     -6.84628906 </i>
   </energy>
  </scstep>
  <scstep>
   <time name="total">    0.05    0.05</time>
   <energy>
    <i name="e_fr_energy">     -6.84642228 </i>
    <i name="e_wo_entrp">     -6.84642228 </i>
    <i name="e_0_energy">     -6.84642228 </i>
   </energy>
  </scstep>
  <scstep>
   <time name="total">    0.05    0.05</time>
   <energy>
    <i name="e_fr_energy">     -6.84647506 </i>
    <i name="e_wo_entrp">     -6.84647506 </i>
    <i name="e_0_energy">     -6.84647506 </i>
   </energy>
  </scstep>
  <scstep>
   <time name="total">    0.05    0.05</time>
   <energy>
    <i name="e_fr_energy">     -6.84649597 </i>
    <i name="e_wo_entrp">     -6.84649597 </i>
    <i name="e_0_energy">     -6.84649597 </i>
   </energy>
  </scstep>
  <scstep>
   <time name="total">    0.05    0.05</time>
   <energy>
    <i name="e_fr_energy">     -6.84650529 </i>
    <i name="e_wo_entrp">     -6.84650529 </i>
    <i name="e_0_energy">     -6.84650529 </i>
   </energy>
  </scstep>
  <scstep>
   <time name="total">    0.06    0.06</time>
   <energy>
    <i name="e_fr_energy">     -6.84650940 </i>
    <i name="e_wo_entrp">     -6.84650940 </i>
    <i name="e_0_energy">     -6.84650940 </i>
   </energy>
  </scstep>
  <scstep>
   <time name="total">    0.05    0.05</time>
   <energy>
    <i name="e_fr_energy">     -6.84651104 </i>
    <i name="e_wo_entrp">     -6.84651104 </i>
    <i name="e_0_energy">     -6.84651104 </i>
   </energy>
  </scstep>
  <scstep>
   <time name="total">    0.08    0.08</time>
   <energy>
    <i name="alphaZ">      2.37634638 </i>
    <i name="ewald">    -92.37838774 </i>
    <i name="hartreedc">    -37.04858604 </i>
    <i name="XCdc">     11.60497356 </i>
    <i name="pawpsdc">     87.40246182 </i>
    <i name="pawaedc">   -101.68912198 </i>
    <i name="eentropy">     -0.00000000 </i>
    <i name="bandstr">   -102.98139053 </i>
    <i name="atom">    214.74120998 </i>
    <i name="e_fr_energy">     -6.84651167 </i>
    <i name="e_wo_entrp">     -6.84651167 </i>
    <i name="e_0_energy">     -6.84651167 </i>
   </energy>
  </scstep>
  <structure>
   <crystal>
    <varray name="basis" >
     <v>       0.00000000       2.04150000       2.04150000 </v>
     <v>       2.04150000       0.00000000       2.04150000 </v>
     <v>       2.04150000       2.04150000       0.00000000 </v>
    </varray>
    <i name="volume">     17.01680995 </i>
    <varray name="rec_basis" >
     <v>      -0.24491795       0.24491795       0.24491795 </v>
     <v>       0.24491795      -0.24491795       0.24491795 </v>
     <v>       0.24491795       0.24491795      -0.24491795 </v>
    </varray>
   </crystal>
   <varray name="positions" >
    <v>       0.00000000       0.00000000       0.00000000 </v>
    <v>       0.50000000       0.50000000       0.50000000 </v>
   </varray>
  </structure>
  <varray name="forces" >
   <v>       0.00000000       0.00000000       0.00000000 </v>
   <v>       0.00000000       0.00000000      -0.00000000 </v>
  </varray>
  <energy>
   <i name="e_fr_energy">     -6.84651167 </i>
   <i name="e_wo_entrp">     -6.84651167 </i>
   <i name="e_0_energy">     -0.00000000 </i>
  </energy>
  <time name="totalsc">    0.82    0.83</time>
  <eigenvalues>
   <array>
    <dimension dim="1">band</dimension>
    <dimension dim="2">kpoint</dimension>
    <dimension dim="3">spin</dimension>
    <field>eigene</field>
    <field>occ</field>
    <set>
     <set comment="spin 1">
      <set comment="kpoint 1">
       <r>  -48.1911    1.0000 </r>
       <r>   -6.7320    1.0000 </r>
       <r>   16.3438    0.0000 </r>
       <r>   18.0529    0.0000 </r>
       <r>   18.0529    0.0000 </r>
       <r>   18.0529    0.0000 </r>
       <r>   22.5457    0.0000 </r>
       <r>   22.5457    0.0000 </r>
      </set>
      <set comment="kpoint 2">
       <r>  -48.1597    1.0000 </r>
       <r>   -4.7146    1.0000 </r>
       <r>    7.4343    0.0000 </r>
       <r>   14.5497    0.0000 </r>
       <r>   16.6075    0.0000 </r>
       <r>   16.6076    0.0000 </r>
       <r>   20.6749    0.0000 </r>
       <r>   20.6749    0.0000 </r>
      </set>
      <set comment="kpoint 3">
       <r>  -48.1514    1.0000 </r>
       <r>   -3.6458    1.0000 </r>
       <r>    7.5251    0.0000 </r>
       <r>   12.0333    0.0000 </r>
       <r>   12.0333    0.0000 </r>
       <r>   15.0910    0.0000 </r>
       <r>   17.3888    0.0000 </r>
       <r>   29.9067    0.0000 </r>
      </set>
      <set comment="kpoint 4">
       <r>  -48.1410    1.0000 </r>
       <r>   -1.9882    1.0000 </r>
       <r>    5.2436    0.0000 </r>
       <r>    7.3909    0.0000 </r>
       <r>   13.0407    0.0000 </r>
       <r>   16.1035    0.0000 </r>
       <r>   24.0017    0.0000 </r>
       <r>   26.5704    0.0000 </r>
      </set>
     </set>
    </set>
   </array>
  </eigenvalues>
  <separator name="orbital magnetization" >
   <v name="MAGDIPOLOUT">      0.00000000      0.00000000      0.00000000</v>
  </separator>
  <dos>
   <i name="efermi">     -1.62528951 </i>
   <total>
    <array>
     <dimension dim="1">gridpoints</dimension>
     <dimension dim="2">spin</dimension>
     <field>energy</field>
     <field>total</field>
     <field>integrated</field>
     <set>
      <set comment="spin 1">
       <r>   -52.0960     0.0000     0.0000 </r>
       <r>   -51.8096     0.0000     0.0000 </r>
       <r>   -51.5233     0.0000     0.0000 </r>
       <r>   -51.2369     0.0000     0.0000 </r>
       <r>   -50.9506     0.0000     0.0000 </r>
       <r>   -50.6642     0.0000     0.0000 </r>
       <r>   -50.3779     0.0000     0.0000 </r>
       <r>   -50.0915     0.0000     0.0000 </r>
       <r>   -49.8051     0.0000     0.0000 </r>
       <r>   -49.5188     0.0000     0.0000 </r>
       <r>   -49.2324     0.0000     0.0000 </r>
       <r>   -48.9461     0.0000     0.0000 </r>
       <r>   -48.6597     0.0000     0.0000 </r>
       <r>   -48.3733     0.0000     0.0000 </r>
       <r>   -48.0870     6.6926     1.9165 </r>
       <r>   -47.8006     0.2916     2.0000 </r>
       <r>   -47.5143     0.0000     2.0000 </r>
       <r>   -47.2279     0.0000     2.0000 </r>
       <r>   -46.9415     0.0000     2.0000 </r>
       <r>   -46.6552     0.0000     2.0000 </r>
       <r>   -46.3688     0.0000     2.0000 </r>
       <r>   -46.0825     0.0000     2.0000 </r>
       <r>   -45.7961     0.0000     2.0000 </r>
       <r>   -45.5098     0.0000     2.0000 </r>
       <r>   -45.2234     0.0000     2.0000 </r>
       <r>   -44.9370     0.0000     2.0000 </r>
       <r>   -44.6507     0.0000     2.0000 </r>
       <r>   -44.3643     0.0000     2.0000 </r>
       <r>   -44.0780     0.0000     2.0000 </r>
       <r>   -43.7916     0.0000     2.0000 </r>
       <r>   -43.5052     0.0000     2.0000 </r>
       <r>   -43.2189     0.0000     2.0000 </r>
       <r>   -42.9325     0.0000     2.0000 </r>
       <r>   -42.6462     0.0000     2.0000 </r>
       <r>   -42.3598     0.0000     2.0000 </r>
       <r>   -42.0735     0.0000     2.0000 </r>
       <r>   -41.7871     0.0000     2.0000 </r>
       <r>   -41.5007     0.0000     2.0000 </r>
       <r>   -41.2144     0.0000     2.0000 </r>
       <r>   -40.9280     0.0000     2.0000 </r>
       <r>   -40.6417     0.0000     2.0000 </r>
       <r>   -40.3553     0.0000     2.0000 </r>
       <r>   -40.0689     0.0000     2.0000 </r>
       <r>   -39.7826     0.0000     2.0000 </r>
       <r>   -39.4962     0.0000     2.0000 </r>
       <r>   -39.2099     0.0000     2.0000 </r>
       <r>   -38.9235     0.0000     2.0000 </r>
       <r>   -38.6371     0.0000     2.0000 </r>
       <r>   -38.3508     0.0000     2.0000 </r>
       <r>   -38.0644     0.0000     2.0000 </r>
       <r>   -37.7781     0.0000     2.0000 </r>
       <r>   -37.4917     0.0000     2.0000 </r>
       <r>   -37.2054     0.0000     2.0000 </r>
       <r>   -36.9190     0.0000     2.0000 </r>
       <r>   -36.6326     0.0000     2.0000 </r>
       <r>   -36.3463     0.0000     2.0000 </r>
       <r>   -36.0599     0.0000     2.0000 </r>
       <r>   -35.7736     0.0000     2.0000 </r>
       <r>   -35.4872     0.0000     2.0000 </r>
       <r>   -35.2008     0.0000     2.0000 </r>
       <r>   -34.9145     0.0000     2.0000 </r>
       <r>   -34.6281     0.0000     2.0000 </r>
       <r>   -34.3418     0.0000     2.0000 </r>
       <r>   -34.0554     0.0000     2.0000 </r>
       <r>   -33.7690     0.0000     2.0000 </r>
       <r>   -33.4827     0.0000     2.0000 </r>
       <r>   -33.1963     0.0000     2.0000 </r>
       <r>   -32.9100     0.0000     2.0000 </r>
       <r>   -32.6236     0.0000     2.0000 </r>
       <r>   -32.3373     0.0000     2.0000 </r>
       <r>   -32.0509     0.0000     2.0000 </r>
       <r>   -31.7645     0.0000     2.0000 </r>
       <r>   -31.4782     0.0000     2.0000 </r>
       <r>   -31.1918     0.0000     2.0000 </r>
       <r>   -30.9055     0.0000     2.0000 </r>
       <r>   -30.6191     0.0000     2.0000 </r>
       <r>   -30.3327     0.0000     2.0000 </r>
       <r>   -30.0464     0.0000     2.0000 </r>
       <r>   -29.7600     0.0000     2.0000 </r>
       <r>   -29.4737     0.0000     2.0000 </r>
       <r>   -29.1873     0.0000     2.0000 </r>
       <r>   -28.9010     0.0000     2.0000 </r>
       <r>   -28.6146     0.0000     2.0000 </r>
       <r>   -28.3282     0.0000     2.0000 </r>
       <r>   -28.0419     0.0000     2.0000 </r>
       <r>   -27.7555     0.0000     2.0000 </r>
       <r>   -27.4692     0.0000     2.0000 </r>
       <r>   -27.1828     0.0000     2.0000 </r>
       <r>   -26.8964     0.0000     2.0000 </r>
       <r>   -26.6101     0.0000     2.0000 </r>
       <r>   -26.3237     0.0000     2.0000 </r>
       <r>   -26.0374     0.0000     2.0000 </r>
       <r>   -25.7510     0.0000     2.0000 </r>
       <r>   -25.4646     0.0000     2.0000 </r>
       <r>   -25.1783     0.0000     2.0000 </r>
       <r>   -24.8919     0.0000     2.0000 </r>
       <r>   -24.6056     0.0000     2.0000 </r>
       <r>   -24.3192     0.0000     2.0000 </r>
       <r>   -24.0329     0.0000     2.0000 </r>
       <r>   -23.7465     0.0000     2.0000 </r>
       <r>   -23.4601     0.0000     2.0000 </r>
       <r>   -23.1738     0.0000     2.0000 </r>
       <r>   -22.8874     0.0000     2.0000 </r>
       <r>   -22.6011     0.0000     2.0000 </r>
       <r>   -22.3147     0.0000     2.0000 </r>
       <r>   -22.0283     0.0000     2.0000 </r>
       <r>   -21.7420     0.0000     2.0000 </r>
       <r>   -21.4556     0.0000     2.0000 </r>
       <r>   -21.1693     0.0000     2.0000 </r>
       <r>   -20.8829     0.0000     2.0000 </r>
       <r>   -20.5966     0.0000     2.0000 </r>
       <r>   -20.3102     0.0000     2.0000 </r>
       <r>   -20.0238     0.0000     2.0000 </r>
       <r>   -19.7375     0.0000     2.0000 </r>
       <r>   -19.4511     0.0000     2.0000 </r>
       <r>   -19.1648     0.0000     2.0000 </r>
       <r>   -18.8784     0.0000     2.0000 </r>
       <r>   -18.5920     0.0000     2.0000 </r>
       <r>   -18.3057     0.0000     2.0000 </r>
       <r>   -18.0193     0.0000     2.0000 </r>
       <r>   -17.7330     0.0000     2.0000 </r>
       <r>   -17.4466     0.0000     2.0000 </r>
       <r>   -17.1602     0.0000     2.0000 </r>
       <r>   -16.8739     0.0000     2.0000 </r>
       <r>   -16.5875     0.0000     2.0000 </r>
       <r>   -16.3012     0.0000     2.0000 </r>
       <r>   -16.0148     0.0000     2.0000 </r>
       <r>   -15.7285     0.0000     2.0000 </r>
       <r>   -15.4421     0.0000     2.0000 </r>
       <r>   -15.1557     0.0000     2.0000 </r>
       <r>   -14.8694     0.0000     2.0000 </r>
       <r>   -14.5830     0.0000     2.0000 </r>
       <r>   -14.2967     0.0000     2.0000 </r>
       <r>   -14.0103     0.0000     2.0000 </r>
       <r>   -13.7239     0.0000     2.0000 </r>
       <r>   -13.4376     0.0000     2.0000 </r>
       <r>   -13.1512     0.0000     2.0000 </r>
       <r>   -12.8649     0.0000     2.0000 </r>
       <r>   -12.5785     0.0000     2.0000 </r>
       <r>   -12.2921     0.0000     2.0000 </r>
       <r>   -12.0058     0.0000     2.0000 </r>
       <r>   -11.7194     0.0000     2.0000 </r>
       <r>   -11.4331     0.0000     2.0000 </r>
       <r>   -11.1467     0.0000     2.0000 </r>
       <r>   -10.8604     0.0000     2.0000 </r>
       <r>   -10.5740     0.0000     2.0000 </r>
       <r>   -10.2876     0.0000     2.0000 </r>
       <r>   -10.0013     0.0000     2.0000 </r>
       <r>    -9.7149     0.0000     2.0000 </r>
       <r>    -9.4286     0.0000     2.0000 </r>
       <r>    -9.1422     0.0000     2.0000 </r>
       <r>    -8.8558     0.0000     2.0000 </r>
       <r>    -8.5695     0.0000     2.0000 </r>
       <r>    -8.2831     0.0000     2.0000 </r>
       <r>    -7.9968     0.0000     2.0000 </r>
       <r>    -7.7104     0.0000     2.0000 </r>
       <r>    -7.4241     0.0000     2.0000 </r>
       <r>    -7.1377     0.0000     2.0000 </r>
       <r>    -6.8513     0.0001     2.0000 </r>
       <r>    -6.5650     0.2586     2.0741 </r>
       <r>    -6.2786     0.0000     2.0741 </r>
       <r>    -5.9923     0.0000     2.0741 </r>
       <r>    -5.7059     0.0000     2.0741 </r>
       <r>    -5.4195     0.0000     2.0741 </r>
       <r>    -5.1332     0.0000     2.0741 </r>
       <r>    -4.8468     0.0002     2.0741 </r>
       <r>    -4.5605     2.0692     2.6667 </r>
       <r>    -4.2741     0.0000     2.6667 </r>
       <r>    -3.9877     0.0000     2.6667 </r>
       <r>    -3.7014     0.0900     2.6924 </r>
       <r>    -3.4150     1.4621     3.1111 </r>
       <r>    -3.1287     0.0000     3.1111 </r>
       <r>    -2.8423     0.0000     3.1111 </r>
       <r>    -2.5560     0.0000     3.1111 </r>
       <r>    -2.2696     0.0000     3.1111 </r>
       <r>    -1.9832     1.7250     3.6051 </r>
       <r>    -1.6969     1.3791     4.0000 </r>
       <r>    -1.4105     0.0000     4.0000 </r>
       <r>    -1.1242     0.0000     4.0000 </r>
       <r>    -0.8378     0.0000     4.0000 </r>
       <r>    -0.5514     0.0000     4.0000 </r>
       <r>    -0.2651     0.0000     4.0000 </r>
       <r>     0.0213     0.0000     4.0000 </r>
       <r>     0.3076     0.0000     4.0000 </r>
       <r>     0.5940     0.0000     4.0000 </r>
       <r>     0.8803     0.0000     4.0000 </r>
       <r>     1.1667     0.0000     4.0000 </r>
       <r>     1.4531     0.0000     4.0000 </r>
       <r>     1.7394     0.0000     4.0000 </r>
       <r>     2.0258     0.0000     4.0000 </r>
       <r>     2.3121     0.0000     4.0000 </r>
       <r>     2.5985     0.0000     4.0000 </r>
       <r>     2.8849     0.0000     4.0000 </r>
       <r>     3.1712     0.0000     4.0000 </r>
       <r>     3.4576     0.0000     4.0000 </r>
       <r>     3.7439     0.0000     4.0000 </r>
       <r>     4.0303     0.0000     4.0000 </r>
       <r>     4.3167     0.0000     4.0000 </r>
       <r>     4.6030     0.0000     4.0000 </r>
       <r>     4.8894     0.0000     4.0000 </r>
       <r>     5.1757     0.0851     4.0244 </r>
       <r>     5.4621     3.0190     4.8889 </r>
       <r>     5.7484     0.0000     4.8889 </r>
       <r>     6.0348     0.0000     4.8889 </r>
       <r>     6.3212     0.0000     4.8889 </r>
       <r>     6.6075     0.0000     4.8889 </r>
       <r>     6.8939     0.0000     4.8889 </r>
       <r>     7.1802     0.0000     4.8889 </r>
       <r>     7.4666     4.8261     6.2709 </r>
       <r>     7.7530     1.8994     6.8148 </r>
       <r>     8.0393     0.0000     6.8148 </r>
       <r>     8.3257     0.0000     6.8148 </r>
       <r>     8.6120     0.0000     6.8148 </r>
       <r>     8.8984     0.0000     6.8148 </r>
       <r>     9.1847     0.0000     6.8148 </r>
       <r>     9.4711     0.0000     6.8148 </r>
       <r>     9.7575     0.0000     6.8148 </r>
       <r>    10.0438     0.0000     6.8148 </r>
       <r>    10.3302     0.0000     6.8148 </r>
       <r>    10.6165     0.0000     6.8148 </r>
       <r>    10.9029     0.0000     6.8148 </r>
       <r>    11.1893     0.0000     6.8148 </r>
       <r>    11.4756     0.0000     6.8148 </r>
       <r>    11.7620     0.0000     6.8148 </r>
       <r>    12.0483     2.0623     7.4054 </r>
       <r>    12.3347     1.0418     7.7037 </r>
       <r>    12.6211     0.0000     7.7037 </r>
       <r>    12.9074     0.0003     7.7038 </r>
       <r>    13.1938     3.1038     8.5926 </r>
       <r>    13.4801     0.0000     8.5926 </r>
       <r>    13.7665     0.0000     8.5926 </r>
       <r>    14.0528     0.0000     8.5926 </r>
       <r>    14.3392     0.0000     8.5926 </r>
       <r>    14.6256     2.0364     9.1757 </r>
       <r>    14.9119     0.0330     9.1852 </r>
       <r>    15.1983     1.5502     9.6291 </r>
       <r>    15.4846     0.0019     9.6296 </r>
       <r>    15.7710     0.0000     9.6296 </r>
       <r>    16.0574     0.2981     9.7150 </r>
       <r>    16.3437     2.9350    10.5555 </r>
       <r>    16.6301     3.1839    11.4672 </r>
       <r>    16.9164     1.0846    11.7778 </r>
       <r>    17.2028     0.0000    11.7778 </r>
       <r>    17.4892     1.5485    12.2212 </r>
       <r>    17.7755     0.0035    12.2222 </r>
       <r>    18.0619     0.4658    12.3556 </r>
       <r>    18.3482     0.3102    12.4444 </r>
       <r>    18.6346     0.0000    12.4444 </r>
       <r>    18.9209     0.0000    12.4444 </r>
       <r>    19.2073     0.0000    12.4444 </r>
       <r>    19.4937     0.0000    12.4444 </r>
       <r>    19.7800     0.0000    12.4444 </r>
       <r>    20.0664     0.0000    12.4444 </r>
       <r>    20.3527     0.0000    12.4444 </r>
       <r>    20.6391     0.6448    12.6291 </r>
       <r>    20.9255     3.4940    13.6296 </r>
       <r>    21.2118     0.0000    13.6296 </r>
       <r>    21.4982     0.0000    13.6296 </r>
       <r>    21.7845     0.0000    13.6296 </r>
       <r>    22.0709     0.0000    13.6296 </r>
       <r>    22.3572     0.0000    13.6296 </r>
       <r>    22.6436     0.5159    13.7774 </r>
       <r>    22.9300     0.0015    13.7778 </r>
       <r>    23.2163     0.0000    13.7778 </r>
       <r>    23.5027     0.0000    13.7778 </r>
       <r>    23.7890     0.0000    13.7778 </r>
       <r>    24.0754     3.0466    14.6502 </r>
       <r>    24.3618     0.0575    14.6667 </r>
       <r>    24.6481     0.0000    14.6667 </r>
       <r>    24.9345     0.0000    14.6667 </r>
       <r>    25.2208     0.0000    14.6667 </r>
       <r>    25.5072     0.0000    14.6667 </r>
       <r>    25.7936     0.0000    14.6667 </r>
       <r>    26.0799     0.0000    14.6667 </r>
       <r>    26.3663     0.0000    14.6667 </r>
       <r>    26.6526     3.0729    15.5466 </r>
       <r>    26.9390     0.0312    15.5556 </r>
       <r>    27.2253     0.0000    15.5556 </r>
       <r>    27.5117     0.0000    15.5556 </r>
       <r>    27.7981     0.0000    15.5556 </r>
       <r>    28.0844     0.0000    15.5556 </r>
       <r>    28.3708     0.0000    15.5556 </r>
       <r>    28.6571     0.0000    15.5556 </r>
       <r>    28.9435     0.0000    15.5556 </r>
       <r>    29.2299     0.0000    15.5556 </r>
       <r>    29.5162     0.0000    15.5556 </r>
       <r>    29.8026     0.0025    15.5563 </r>
       <r>    30.0889     1.5496    16.0000 </r>
       <r>    30.3753     0.0000    16.0000 </r>
       <r>    30.6616     0.0000    16.0000 </r>
       <r>    30.9480     0.0000    16.0000 </r>
       <r>    31.2344     0.0000    16.0000 </r>
       <r>    31.5207     0.0000    16.0000 </r>
       <r>    31.8071     0.0000    16.0000 </r>
       <r>    32.0934     0.0000    16.0000 </r>
       <r>    32.3798     0.0000    16.0000 </r>
       <r>    32.6662     0.0000    16.0000 </r>
       <r>    32.9525     0.0000    16.0000 </r>
       <r>    33.2389     0.0000    16.0000 </r>
       <r>    33.5252     0.0000    16.0000 </r>
       <r>    33.8116     0.0000    16.0000 </r>
      </set>
     </set>
    </array>
   </total>
  </dos>
 </calculation>
 <structure name="finalpos" >
  <crystal>
   <varray name="basis" >
    <v>       0.00000000       2.04150000       2.04150000 </v>
    <v>       2.04150000       0.00000000       2.04150000 </v>
    <v>       2.04150000       2.04150000       0.00000000 </v>
   </varray>
   <i name="volume">     17.01680995 </i>
   <varray name="rec_basis" >
    <v>      -0.24491795       0.24491795       0.24491795 </v>
    <v>       0.24491795      -0.24491795       0.24491795 </v>
    <v>       0.24491795       0.24491795      -0.24491795 </v>
   </varray>
  </crystal>
  <varray name="positions" >
   <v>       0.00000000       0.00000000       0.00000000 </v>
   <v>       0.50000000       0.50000000       0.50000000 </v>
  </varray>
 </structure>
</modeling>
