LiH-HSE06-gamma-vasp                    
   1.00000000000000     
     0.0000000000000000    2.0415000000000001    2.0415000000000001
     2.0415000000000001    0.0000000000000000    2.0415000000000001
     2.0415000000000001    2.0415000000000001    0.0000000000000000
   Li   H 
     1     1
Direct
  0.0000000000000000  0.0000000000000000  0.0000000000000000
  0.5000000000000000  0.5000000000000000  0.5000000000000000
 
  0.00000000E+00  0.00000000E+00  0.00000000E+00
  0.00000000E+00  0.00000000E+00  0.00000000E+00
