    2    2    1    1
  0.8508405E+01  0.2887117E-09  0.2887117E-09  0.2887117E-09  0.5000000E-15
  1.000000000000000E-004
  CAR 
 LiH-HSE06-gamma-vasp  (HSE06)           
      4      1      8
 
  0.0000000E+00  0.0000000E+00  0.0000000E+00  0.1000000E+01
    1      -47.479719   1.000000
    2       -7.866885   1.000000
    3       15.503515   0.000000
    4       17.980021   0.000000
    5       17.980050   0.000000
    6       17.980050   0.000000
    7       22.306443   0.000000
    8       22.306448   0.000000
