       N       E                     dE             d eps       ncg     rms          ort
SDA:   1    -0.139303013693E+02   -0.13930E+02   -0.96917E-02     8   0.242E-01 0.000E+00
DMP:   2    -0.139381608865E+02   -0.78595E-02   -0.66033E-02     8   0.107E-01 0.151E-01
DMP:   3    -0.139429490454E+02   -0.47882E-02   -0.25356E-02     8   0.348E-02 0.747E-02
DMP:   4    -0.139447450265E+02   -0.17960E-02   -0.10051E-02     8   0.150E-02 0.266E-02
DMP:   5    -0.139454943625E+02   -0.74934E-03   -0.44721E-03     8   0.645E-03 0.124E-02
DMP:   6    -0.139458329407E+02   -0.33858E-03   -0.18044E-03     8   0.231E-03 0.576E-03
DMP:   7    -0.139459656931E+02   -0.13275E-03   -0.61158E-04     8   0.710E-04 0.214E-03
DMP:   8    -0.139460096424E+02   -0.43949E-04   -0.20829E-04     8   0.257E-04 0.692E-04
DMP:   9    -0.139460247459E+02   -0.15104E-04   -0.86114E-05     8   0.117E-04 0.257E-04
DMP:  10    -0.139460309012E+02   -0.61553E-05   -0.33505E-05     8   0.409E-05 0.112E-04
DMP:  11    -0.139460331199E+02   -0.22187E-05   -0.11030E-05     8   0.120E-05 0.408E-05
DMP:  12    -0.139460337559E+02   -0.63599E-06   -0.32967E-06     8   0.349E-06 0.124E-05
   1 F= -.13946034E+02 E0= -.13946034E+02  d E =-.682676E-32
