<?xml version="1.0" encoding="ISO-8859-1"?>
<modeling>
 <generator>
  <i name="program" type="string">vasp </i>
  <i name="version" type="string">5.4.4.18Apr17-6-g9f103f2a35  </i>
  <i name="subversion" type="string">(build Mar 10 2026 18:18:58) gamma-only         parallel </i>
  <i name="platform" type="string">LinuxIFC </i>
  <i name="date" type="string">2026 06 25 </i>
  <i name="time" type="string">15:59:32 </i>
 </generator>
 <incar>
  <i type="string" name="SYSTEM"> LiH-HSE06-gamma-vasp  (HSE06)</i>
  <i type="int" name="ISTART">     1</i>
  <i type="string" name="PREC">accurate</i>
  <i type="string" name="ALGO"> Damped</i>
  <i type="int" name="ICHARG">     0</i>
  <i type="int" name="NELM">   120</i>
  <i name="EDIFF">      0.00000100</i>
  <i name="ENCUT">    650.00000000</i>
  <i type="logical" name="LREAL"> F  </i>
  <i name="TIME">      0.40000000</i>
  <i type="int" name="ISMEAR">     0</i>
  <i name="SIGMA">      0.05000000</i>
  <i type="logical" name="LWAVE"> F  </i>
  <i type="logical" name="LCHARG"> F  </i>
  <v type="int" name="KPOINT_BSE">    -1     0     0     0</v>
  <i type="int" name="NELM">   120</i>
  <i type="logical" name="LHFCALC"> T  </i>
  <i name="HFSCREEN">      0.20000000</i>
  <i name="AEXX">      0.25000000</i>
  <i type="string" name="PRECFOCK">fast</i>
 </incar>
 <structure name="primitive_cell" >
  <crystal>
   <varray name="basis" >
    <v>       0.00000000       2.04150000       2.04150000 </v>
    <v>       2.04150000       0.00000000       2.04150000 </v>
    <v>       2.04150000       2.04150000       0.00000000 </v>
   </varray>
   <i name="volume">     17.01680995 </i>
   <varray name="rec_basis" >
    <v>      -0.24491795       0.24491795       0.24491795 </v>
    <v>       0.24491795      -0.24491795       0.24491795 </v>
    <v>       0.24491795       0.24491795      -0.24491795 </v>
   </varray>
  </crystal>
  <varray name="positions" >
   <v>       0.00000000       0.00000000       0.00000000 </v>
   <v>      -0.50000000      -0.50000000      -0.50000000 </v>
  </varray>
 </structure>
 <varray name="primitive_index" >
  <v type="int" >        1 </v>
  <v type="int" >        2 </v>
 </varray>
 <kpoints>
  <generation param="Gamma">
   <v type="int" name="divisions">       1        1        1 </v>
   <v name="usershift">      0.00000000       0.00000000       0.00000000 </v>
   <v name="genvec1">      1.00000000       0.00000000       0.00000000 </v>
   <v name="genvec2">      0.00000000       1.00000000       0.00000000 </v>
   <v name="genvec3">      0.00000000       0.00000000       1.00000000 </v>
   <v name="shift">      0.00000000       0.00000000       0.00000000 </v>
  </generation>
  <varray name="kpointlist" >
   <v>       0.00000000       0.00000000       0.00000000 </v>
  </varray>
  <varray name="weights" >
   <v>       1.00000000 </v>
  </varray>
 </kpoints>
 <parameters>
  <separator name="general" >
   <i type="string" name="SYSTEM">LiH-HSE06-gamma-vasp  (HSE06)</i>
   <i type="logical" name="LCOMPAT"> F  </i>
  </separator>
  <separator name="electronic" >
   <i type="string" name="PREC">accura</i>
   <i name="ENMAX">    650.00000000</i>
   <i name="ENAUG">    628.94500000</i>
   <i name="EDIFF">      0.00000100</i>
   <i type="int" name="IALGO">    53</i>
   <i type="int" name="IWAVPR">    10</i>
   <i type="int" name="NBANDS">     8</i>
   <i name="NELECT">      4.00000000</i>
   <i type="int" name="TURBO">     0</i>
   <i type="int" name="IRESTART">     0</i>
   <i type="int" name="NREBOOT">     0</i>
   <i type="int" name="NMIN">     0</i>
   <i name="EREF">      0.00000000</i>
   <separator name="electronic smearing" >
    <i type="int" name="ISMEAR">     0</i>
    <i name="SIGMA">      0.05000000</i>
    <i name="KSPACING">      0.50000000</i>
    <i type="logical" name="KGAMMA"> T  </i>
   </separator>
   <separator name="electronic projectors" >
    <i type="logical" name="LREAL"> F  </i>
    <v name="ROPT">      0.00000000      0.00000000</v>
    <i type="int" name="LMAXPAW">  -100</i>
    <i type="int" name="LMAXMIX">     2</i>
    <i type="logical" name="NLSPLINE"> F  </i>
   </separator>
   <separator name="electronic startup" >
    <i type="int" name="ISTART">     1</i>
    <i type="int" name="ICHARG">     0</i>
    <i type="int" name="INIWAV">     1</i>
   </separator>
   <separator name="electronic spin" >
    <i type="int" name="ISPIN">     1</i>
    <i type="logical" name="LNONCOLLINEAR"> F  </i>
    <v name="MAGMOM">      1.00000000      1.00000000</v>
    <i name="NUPDOWN">     -1.00000000</i>
    <i type="logical" name="LSORBIT"> F  </i>
    <v name="SAXIS">      0.00000000      0.00000000      1.00000000</v>
    <i type="logical" name="LSPIRAL"> F  </i>
    <v name="QSPIRAL">      0.00000000      0.00000000      0.00000000</v>
    <i type="logical" name="LZEROZ"> F  </i>
   </separator>
   <separator name="electronic exchange-correlation" >
    <i type="logical" name="LASPH"> F  </i>
    <i type="logical" name="LMETAGGA"> F  </i>
   </separator>
   <separator name="electronic convergence" >
    <i type="int" name="NELM">   120</i>
    <i type="int" name="NELMDL">     0</i>
    <i type="int" name="NELMIN">     2</i>
    <i name="ENINI">    650.00000000</i>
    <separator name="electronic convergence detail" >
     <i type="logical" name="LDIAG"> T  </i>
     <i type="logical" name="LSUBROT"> F  </i>
     <i name="WEIMIN">      0.00000000</i>
     <i name="EBREAK">      0.00000003</i>
     <i name="DEPER">      0.30000000</i>
     <i type="int" name="NRMM">     4</i>
     <i name="TIME">      0.40000000</i>
    </separator>
   </separator>
   <separator name="electronic mixer" >
    <i name="AMIX">      0.40000000</i>
    <i name="BMIX">      1.00000000</i>
    <i name="AMIN">      0.10000000</i>
    <i name="AMIX_MAG">      1.60000000</i>
    <i name="BMIX_MAG">      1.00000000</i>
    <separator name="electronic mixer details" >
     <i type="int" name="IMIX">     4</i>
     <i type="logical" name="MIXFIRST"> F  </i>
     <i type="int" name="MAXMIX">   -45</i>
     <i name="WC">    100.00000000</i>
     <i type="int" name="INIMIX">     1</i>
     <i type="int" name="MIXPRE">     1</i>
     <i type="int" name="MREMOVE">     5</i>
    </separator>
   </separator>
   <separator name="electronic dipolcorrection" >
    <i type="logical" name="LDIPOL"> F  </i>
    <i type="logical" name="LMONO"> F  </i>
    <i type="int" name="IDIPOL">     0</i>
    <i name="EPSILON">      1.00000000</i>
    <v name="DIPOL">   -100.00000000   -100.00000000   -100.00000000</v>
    <i name="EFIELD">      0.00000000</i>
   </separator>
  </separator>
  <separator name="grids" >
   <i type="int" name="NGX">    24</i>
   <i type="int" name="NGY">    24</i>
   <i type="int" name="NGZ">    24</i>
   <i type="int" name="NGXF">    48</i>
   <i type="int" name="NGYF">    48</i>
   <i type="int" name="NGZF">    48</i>
   <i type="logical" name="ADDGRID"> F  </i>
  </separator>
  <separator name="ionic" >
   <i type="int" name="NSW">     0</i>
   <i type="int" name="IBRION">    -1</i>
   <i type="int" name="MDALGO">     0</i>
   <i type="int" name="ISIF">     0</i>
   <i name="PSTRESS">      0.00000000</i>
   <i name="EDIFFG">      0.00001000</i>
   <i type="int" name="NFREE">     0</i>
   <i name="POTIM">      0.50000000</i>
   <i name="SMASS">     -3.00000000</i>
   <i name="SCALEE">      1.00000000</i>
  </separator>
  <separator name="ionic md" >
   <i name="TEBEG">      0.00010000</i>
   <i name="TEEND">      0.00010000</i>
   <i type="int" name="NBLOCK">     1</i>
   <i type="int" name="KBLOCK">     1</i>
   <i type="int" name="NPACO">   256</i>
   <i name="APACO">     16.00000000</i>
  </separator>
  <separator name="symmetry" >
   <i type="int" name="ISYM">     3</i>
   <i name="SYMPREC">      0.00001000</i>
  </separator>
  <separator name="dos" >
   <i type="int" name="LORBIT">     0</i>
   <v name="RWIGS">     -1.00000000     -1.00000000</v>
   <i type="int" name="NEDOS">   301</i>
   <i name="EMIN">     10.00000000</i>
   <i name="EMAX">    -10.00000000</i>
   <i name="EFERMI">      0.00000000</i>
  </separator>
  <separator name="writing" >
   <i type="int" name="NWRITE">     2</i>
   <i type="logical" name="LWAVE"> F  </i>
   <i type="logical" name="LDOWNSAMPLE"> F  </i>
   <i type="logical" name="LCHARG"> F  </i>
   <i type="logical" name="LPARD"> F  </i>
   <i type="logical" name="LVTOT"> F  </i>
   <i type="logical" name="LVHAR"> F  </i>
   <i type="logical" name="LELF"> F  </i>
   <i type="logical" name="LOPTICS"> F  </i>
   <v name="STM">      0.00000000      0.00000000      0.00000000      0.00000000      0.00000000      0.00000000      0.00000000</v>
  </separator>
  <separator name="performance" >
   <i type="int" name="NPAR">     8</i>
   <i type="int" name="NSIM">     4</i>
   <i type="int" name="NBLK">    -1</i>
   <i type="logical" name="LPLANE"> T  </i>
   <i type="logical" name="LSCALAPACK"> T  </i>
   <i type="logical" name="LSCAAWARE"> F  </i>
   <i type="logical" name="LSCALU"> F  </i>
   <i type="logical" name="LASYNC"> F  </i>
   <i type="logical" name="LORBITALREAL"> F  </i>
  </separator>
  <separator name="miscellaneous" >
   <i type="int" name="IDIOT">     3</i>
   <i type="int" name="ISPECIAL">     0</i>
   <i type="logical" name="LMUSIC"> F  </i>
   <v name="POMASS">      7.01000000      1.00000000</v>
   <v name="DARWINR">      0.00000000      0.00000000</v>
   <v name="DARWINV">      1.00000000      1.00000000</v>
   <i type="logical" name="LCORR"> T  </i>
  </separator>
  <i type="logical" name="GGA_COMPAT"> T  </i>
  <i type="logical" name="LBERRY"> F  </i>
  <i type="int" name="ICORELEVEL">     0</i>
  <i type="logical" name="LDAU"> F  </i>
  <i type="int" name="I_CONSTRAINED_M">     0</i>
  <separator name="electronic exchange-correlation" >
   <i type="string" name="GGA">--</i>
   <i type="int" name="VOSKOWN">     0</i>
   <i type="logical" name="LHFCALC"> T  </i>
   <i type="string" name="PRECFOCK">fast</i>
   <i type="logical" name="LSYMGRAD"> F  </i>
   <i type="logical" name="LHFONE"> F  </i>
   <i type="logical" name="LRHFCALC"> F  </i>
   <i type="logical" name="LTHOMAS"> F  </i>
   <i type="logical" name="LMODELHF"> F  </i>
   <i name="ENCUT4O">     -1.00000000</i>
   <i type="int" name="EXXOEP">     0</i>
   <i type="int" name="FOURORBIT">     0</i>
   <i name="AEXX">      0.25000000</i>
   <i name="HFALPHA">     -1.00000000</i>
   <i name="MCALPHA">      0.00000000</i>
   <i name="ALDAX">      0.75000000</i>
   <i name="AGGAX">      0.75000000</i>
   <i name="ALDAC">      1.00000000</i>
   <i name="AGGAC">      1.00000000</i>
   <i type="int" name="NKREDX">     1</i>
   <i type="int" name="NKREDY">     1</i>
   <i type="int" name="NKREDZ">     1</i>
   <i type="logical" name="SHIFTRED"> F  </i>
   <i type="logical" name="ODDONLY"> F  </i>
   <i type="logical" name="EVENONLY"> F  </i>
   <i type="int" name="LMAXFOCK">     4</i>
   <i type="int" name="NMAXFOCKAE">     1</i>
   <i type="logical" name="LFOCKAEDFT"> F  </i>
   <i name="HFSCREEN">      0.20000000</i>
   <i name="HFSCREENC">      0.20000000</i>
   <i type="int" name="NBANDSGWLOW">     1</i>
  </separator>
  <separator name="vdW DFT" >
   <i type="logical" name="LUSE_VDW"> F  </i>
   <i name="Zab_VDW">     -0.84910000</i>
   <i name="PARAM1">      0.12340000</i>
   <i name="PARAM2">      1.00000000</i>
   <i name="PARAM3">      0.00000000</i>
  </separator>
  <separator name="model GW" >
   <i type="int" name="MODEL_GW">     0</i>
   <i name="MODEL_EPS0">      5.10504298</i>
   <i name="MODEL_ALPHA">      1.00000000</i>
  </separator>
  <separator name="linear response parameters" >
   <i type="logical" name="LEPSILON"> F  </i>
   <i type="logical" name="LRPA"> F  </i>
   <i type="logical" name="LNABLA"> F  </i>
   <i type="logical" name="LVEL"> F  </i>
   <i type="int" name="KINTER">     0</i>
   <i name="CSHIFT">      0.10000000</i>
   <i name="OMEGAMAX">     -1.00000000</i>
   <i name="DEG_THRESHOLD">      0.00200000</i>
   <i name="RTIME">     -0.10000000</i>
   <i name="WPLASMAI">      0.00000000</i>
   <v name="DFIELD">      0.00000000      0.00000000      0.00000000</v>
   <v name="WPLASMA">      0.00000000      0.00000000      0.00000000      0.00000000      0.00000000      0.00000000      0.00000000      0.00000000      0.00000000</v>
  </separator>
  <separator name="orbital magnetization" >
   <i type="logical" name="NUCIND"> F  </i>
   <v name="MAGPOS">      0.00000000      0.00000000      0.00000000</v>
   <i type="logical" name="LNICSALL"> T  </i>
   <i type="logical" name="ORBITALMAG"> F  </i>
   <i type="logical" name="LMAGBLOCH"> F  </i>
   <i type="logical" name="LCHIMAG"> F  </i>
   <i type="logical" name="LGAUGE"> T  </i>
   <i type="int" name="MAGATOM">     0</i>
   <v name="MAGDIPOL">      0.00000000      0.00000000      0.00000000</v>
   <v name="AVECCONST">      0.00000000      0.00000000      0.00000000</v>
  </separator>
  <separator name="response functions" >
   <i type="logical" name="LADDER"> F  </i>
   <i type="logical" name="LRPAFORCE"> F  </i>
   <i type="logical" name="LFXC"> F  </i>
   <i type="logical" name="LHARTREE"> T  </i>
   <i type="int" name="IBSE">     0</i>
   <v type="int" name="KPOINT">    -1     0     0     0</v>
   <i type="logical" name="LTCTE"> F  </i>
   <i type="logical" name="LTETE"> F  </i>
   <i type="logical" name="LTRIPLET"> F  </i>
   <i type="logical" name="LFXCEPS"> F  </i>
   <i type="logical" name="LFXHEG"> F  </i>
   <i type="int" name="NATURALO">     2</i>
   <i type="logical" name="L2ORDER"> F  </i>
   <i type="logical" name="LMP2LT"> F  </i>
   <i type="logical" name="LUSEW"> F  </i>
   <i name="ENCUTGW">     -2.00000000</i>
   <i name="ENCUTGWSOFT">     -2.00000000</i>
   <i name="ENCUTLF">     -1.00000000</i>
   <i type="int" name="LMAXMP2">    -1</i>
   <i name="SCISSOR">      0.00000000</i>
   <i type="int" name="NOMEGA">     0</i>
   <i type="int" name="NOMEGAR">     0</i>
   <i type="int" name="NBANDSGW">    -1</i>
   <i type="int" name="NBANDSO">    -1</i>
   <i type="int" name="NBANDSV">    -1</i>
   <i type="int" name="NELM">   120</i>
   <i type="int" name="NELMHF">     1</i>
   <i type="int" name="DIM">     3</i>
   <i type="int" name="ANTIRES">     0</i>
   <i name="OMEGAMAX">    -30.00000000</i>
   <i name="OMEGAMIN">    -30.00000000</i>
   <i name="OMEGATL">   -200.00000000</i>
   <i type="int" name="OMEGAGRID">   140</i>
   <i name="CSHIFT">     -0.10000000</i>
   <i type="logical" name="SELFENERGY"> F  </i>
   <i type="logical" name="LSPECTRAL"> F  </i>
   <i type="logical" name="LSPECTRALGW"> F  </i>
   <i type="logical" name="LSINGLES"> F  </i>
   <i type="logical" name="LFERMIGW"> F  </i>
   <i type="logical" name="ODDONLYGW"> F  </i>
   <i type="logical" name="EVENONLYGW"> F  </i>
   <i type="int" name="NKREDLFX">     1</i>
   <i type="int" name="NKREDLFY">     1</i>
   <i type="int" name="NKREDLFZ">     1</i>
   <i type="int" name="MAXMEM">  2800</i>
   <i type="int" name="TELESCOPE">     0</i>
   <i type="int" name="TAUPAR">     1</i>
   <i type="int" name="OMEGAPAR">    -1</i>
   <i name="LAMBDA">      1.00000000</i>
  </separator>
  <separator name="External order field" >
   <i name="OFIELD_KAPPA">      0.00000000</i>
   <v name="OFIELD_K">      0.00000000      0.00000000      0.00000000</v>
   <i name="OFIELD_Q6_NEAR">      0.00000000</i>
   <i name="OFIELD_Q6_FAR">      0.00000000</i>
   <i name="OFIELD_A">      0.00000000</i>
  </separator>
 </parameters>
 <atominfo>
  <atoms>       2 </atoms>
  <types>       2 </types>
  <array name="atoms" >
   <dimension dim="1">ion</dimension>
   <field type="string">element</field>
   <field type="int">atomtype</field>
   <set>
    <rc><c>Li</c><c>   1</c></rc>
    <rc><c>H </c><c>   2</c></rc>
   </set>
  </array>
  <array name="atomtypes" >
   <dimension dim="1">type</dimension>
   <field type="int">atomspertype</field>
   <field type="string">element</field>
   <field>mass</field>
   <field>valence</field>
   <field type="string">pseudopotential</field>
   <set>
    <rc><c>   1</c><c>Li</c><c>      7.01000000</c><c>      3.00000000</c><c>  PAW_PBE Li_sv 10Sep2004               </c></rc>
    <rc><c>   1</c><c>H </c><c>      1.00000000</c><c>      1.00000000</c><c>  PAW_PBE H 15Jun2001                   </c></rc>
   </set>
  </array>
 </atominfo>
 <structure name="initialpos" >
  <crystal>
   <varray name="basis" >
    <v>       0.00000000       2.04150000       2.04150000 </v>
    <v>       2.04150000       0.00000000       2.04150000 </v>
    <v>       2.04150000       2.04150000       0.00000000 </v>
   </varray>
   <i name="volume">     17.01680995 </i>
   <varray name="rec_basis" >
    <v>      -0.24491795       0.24491795       0.24491795 </v>
    <v>       0.24491795      -0.24491795       0.24491795 </v>
    <v>       0.24491795       0.24491795      -0.24491795 </v>
   </varray>
  </crystal>
  <varray name="positions" >
   <v>       0.00000000       0.00000000       0.00000000 </v>
   <v>       0.50000000       0.50000000       0.50000000 </v>
  </varray>
 </structure>
 <calculation>
  <scstep>
   <time name="total">    0.03    0.04</time>
   <energy>
    <i name="alphaZ">      2.37634638 </i>
    <i name="ewald">    -92.37838774 </i>
    <i name="hartreedc">    -38.70614226 </i>
    <i name="XCdc">     11.66690976 </i>
    <i name="pawpsdc">    119.67999187 </i>
    <i name="pawaedc">   -132.53341549 </i>
    <i name="eentropy">     -0.00000000 </i>
    <i name="bandstr">   -110.74706747 </i>
    <i name="atom">    214.74120998 </i>
    <i name="e_fr_energy">    -13.93030137 </i>
    <i name="e_wo_entrp">    -13.93030137 </i>
    <i name="e_0_energy">    -13.93030137 </i>
   </energy>
  </scstep>
  <scstep>
   <time name="total">    0.02    0.02</time>
   <energy>
    <i name="e_fr_energy">    -13.93816089 </i>
    <i name="e_wo_entrp">    -13.93816089 </i>
    <i name="e_0_energy">    -13.93816089 </i>
   </energy>
  </scstep>
  <scstep>
   <time name="total">    0.02    0.02</time>
   <energy>
    <i name="e_fr_energy">    -13.94294905 </i>
    <i name="e_wo_entrp">    -13.94294905 </i>
    <i name="e_0_energy">    -13.94294905 </i>
   </energy>
  </scstep>
  <scstep>
   <time name="total">    0.02    0.02</time>
   <energy>
    <i name="e_fr_energy">    -13.94474503 </i>
    <i name="e_wo_entrp">    -13.94474503 </i>
    <i name="e_0_energy">    -13.94474503 </i>
   </energy>
  </scstep>
  <scstep>
   <time name="total">    0.02    0.02</time>
   <energy>
    <i name="e_fr_energy">    -13.94549436 </i>
    <i name="e_wo_entrp">    -13.94549436 </i>
    <i name="e_0_energy">    -13.94549436 </i>
   </energy>
  </scstep>
  <scstep>
   <time name="total">    0.02    0.02</time>
   <energy>
    <i name="e_fr_energy">    -13.94583294 </i>
    <i name="e_wo_entrp">    -13.94583294 </i>
    <i name="e_0_energy">    -13.94583294 </i>
   </energy>
  </scstep>
  <scstep>
   <time name="total">    0.02    0.02</time>
   <energy>
    <i name="e_fr_energy">    -13.94596569 </i>
    <i name="e_wo_entrp">    -13.94596569 </i>
    <i name="e_0_energy">    -13.94596569 </i>
   </energy>
  </scstep>
  <scstep>
   <time name="total">    0.02    0.02</time>
   <energy>
    <i name="e_fr_energy">    -13.94600964 </i>
    <i name="e_wo_entrp">    -13.94600964 </i>
    <i name="e_0_energy">    -13.94600964 </i>
   </energy>
  </scstep>
  <scstep>
   <time name="total">    0.02    0.02</time>
   <energy>
    <i name="e_fr_energy">    -13.94602475 </i>
    <i name="e_wo_entrp">    -13.94602475 </i>
    <i name="e_0_energy">    -13.94602475 </i>
   </energy>
  </scstep>
  <scstep>
   <time name="total">    0.02    0.02</time>
   <energy>
    <i name="e_fr_energy">    -13.94603090 </i>
    <i name="e_wo_entrp">    -13.94603090 </i>
    <i name="e_0_energy">    -13.94603090 </i>
   </energy>
  </scstep>
  <scstep>
   <time name="total">    0.02    0.02</time>
   <energy>
    <i name="e_fr_energy">    -13.94603312 </i>
    <i name="e_wo_entrp">    -13.94603312 </i>
    <i name="e_0_energy">    -13.94603312 </i>
   </energy>
  </scstep>
  <scstep>
   <time name="total">    0.02    0.02</time>
   <energy>
    <i name="alphaZ">      2.37634638 </i>
    <i name="ewald">    -92.37838774 </i>
    <i name="hartreedc">    -38.63205500 </i>
    <i name="XCdc">     11.64681454 </i>
    <i name="pawpsdc">    118.79473121 </i>
    <i name="pawaedc">   -131.76733453 </i>
    <i name="eentropy">     -0.00000000 </i>
    <i name="bandstr">   -110.69320483 </i>
    <i name="atom">    214.74120998 </i>
    <i name="e_fr_energy">    -13.94603376 </i>
    <i name="e_wo_entrp">    -13.94603376 </i>
    <i name="e_0_energy">    -13.94603376 </i>
   </energy>
  </scstep>
  <structure>
   <crystal>
    <varray name="basis" >
     <v>       0.00000000       2.04150000       2.04150000 </v>
     <v>       2.04150000       0.00000000       2.04150000 </v>
     <v>       2.04150000       2.04150000       0.00000000 </v>
    </varray>
    <i name="volume">     17.01680995 </i>
    <varray name="rec_basis" >
     <v>      -0.24491795       0.24491795       0.24491795 </v>
     <v>       0.24491795      -0.24491795       0.24491795 </v>
     <v>       0.24491795       0.24491795      -0.24491795 </v>
    </varray>
   </crystal>
   <varray name="positions" >
    <v>       0.00000000       0.00000000       0.00000000 </v>
    <v>       0.50000000       0.50000000       0.50000000 </v>
   </varray>
  </structure>
  <varray name="forces" >
   <v>       0.00000000       0.00000000       0.00000000 </v>
   <v>      -0.00000000      -0.00000000      -0.00000000 </v>
  </varray>
  <energy>
   <i name="e_fr_energy">    -13.94603376 </i>
   <i name="e_wo_entrp">    -13.94603376 </i>
   <i name="e_0_energy">     -0.00000000 </i>
  </energy>
  <time name="totalsc">    0.33    0.34</time>
  <eigenvalues>
   <array>
    <dimension dim="1">band</dimension>
    <dimension dim="2">kpoint</dimension>
    <dimension dim="3">spin</dimension>
    <field>eigene</field>
    <field>occ</field>
    <set>
     <set comment="spin 1">
      <set comment="kpoint 1">
       <r>  -47.4797    1.0000 </r>
       <r>   -7.8669    1.0000 </r>
       <r>   15.5035    0.0000 </r>
       <r>   17.9800    0.0000 </r>
       <r>   17.9801    0.0000 </r>
       <r>   17.9801    0.0000 </r>
       <r>   22.3064    0.0000 </r>
       <r>   22.3064    0.0000 </r>
      </set>
     </set>
    </set>
   </array>
  </eigenvalues>
  <separator name="orbital magnetization" >
   <v name="MAGDIPOLOUT">      0.00000000      0.00000000      0.00000000</v>
  </separator>
  <dos>
   <i name="efermi">     -7.43699796 </i>
   <total>
    <array>
     <dimension dim="1">gridpoints</dimension>
     <dimension dim="2">spin</dimension>
     <field>energy</field>
     <field>total</field>
     <field>integrated</field>
     <set>
      <set comment="spin 1">
       <r>   -50.9690     0.0000     0.0000 </r>
       <r>   -50.7131     0.0000     0.0000 </r>
       <r>   -50.4573     0.0000     0.0000 </r>
       <r>   -50.2014     0.0000     0.0000 </r>
       <r>   -49.9455     0.0000     0.0000 </r>
       <r>   -49.6896     0.0000     0.0000 </r>
       <r>   -49.4337     0.0000     0.0000 </r>
       <r>   -49.1778     0.0000     0.0000 </r>
       <r>   -48.9220     0.0000     0.0000 </r>
       <r>   -48.6661     0.0000     0.0000 </r>
       <r>   -48.4102     0.0000     0.0000 </r>
       <r>   -48.1543     0.0000     0.0000 </r>
       <r>   -47.8984     0.0000     0.0000 </r>
       <r>   -47.6426     0.0000     0.0000 </r>
       <r>   -47.3867     7.7829     1.9915 </r>
       <r>   -47.1308     0.0332     2.0000 </r>
       <r>   -46.8749     0.0000     2.0000 </r>
       <r>   -46.6190     0.0000     2.0000 </r>
       <r>   -46.3631     0.0000     2.0000 </r>
       <r>   -46.1073     0.0000     2.0000 </r>
       <r>   -45.8514     0.0000     2.0000 </r>
       <r>   -45.5955     0.0000     2.0000 </r>
       <r>   -45.3396     0.0000     2.0000 </r>
       <r>   -45.0837     0.0000     2.0000 </r>
       <r>   -44.8278     0.0000     2.0000 </r>
       <r>   -44.5720     0.0000     2.0000 </r>
       <r>   -44.3161     0.0000     2.0000 </r>
       <r>   -44.0602     0.0000     2.0000 </r>
       <r>   -43.8043     0.0000     2.0000 </r>
       <r>   -43.5484     0.0000     2.0000 </r>
       <r>   -43.2925     0.0000     2.0000 </r>
       <r>   -43.0367     0.0000     2.0000 </r>
       <r>   -42.7808     0.0000     2.0000 </r>
       <r>   -42.5249     0.0000     2.0000 </r>
       <r>   -42.2690     0.0000     2.0000 </r>
       <r>   -42.0131     0.0000     2.0000 </r>
       <r>   -41.7573     0.0000     2.0000 </r>
       <r>   -41.5014     0.0000     2.0000 </r>
       <r>   -41.2455     0.0000     2.0000 </r>
       <r>   -40.9896     0.0000     2.0000 </r>
       <r>   -40.7337     0.0000     2.0000 </r>
       <r>   -40.4778     0.0000     2.0000 </r>
       <r>   -40.2220     0.0000     2.0000 </r>
       <r>   -39.9661     0.0000     2.0000 </r>
       <r>   -39.7102     0.0000     2.0000 </r>
       <r>   -39.4543     0.0000     2.0000 </r>
       <r>   -39.1984     0.0000     2.0000 </r>
       <r>   -38.9425     0.0000     2.0000 </r>
       <r>   -38.6867     0.0000     2.0000 </r>
       <r>   -38.4308     0.0000     2.0000 </r>
       <r>   -38.1749     0.0000     2.0000 </r>
       <r>   -37.9190     0.0000     2.0000 </r>
       <r>   -37.6631     0.0000     2.0000 </r>
       <r>   -37.4072     0.0000     2.0000 </r>
       <r>   -37.1514     0.0000     2.0000 </r>
       <r>   -36.8955     0.0000     2.0000 </r>
       <r>   -36.6396     0.0000     2.0000 </r>
       <r>   -36.3837     0.0000     2.0000 </r>
       <r>   -36.1278     0.0000     2.0000 </r>
       <r>   -35.8720     0.0000     2.0000 </r>
       <r>   -35.6161     0.0000     2.0000 </r>
       <r>   -35.3602     0.0000     2.0000 </r>
       <r>   -35.1043     0.0000     2.0000 </r>
       <r>   -34.8484     0.0000     2.0000 </r>
       <r>   -34.5925     0.0000     2.0000 </r>
       <r>   -34.3367     0.0000     2.0000 </r>
       <r>   -34.0808     0.0000     2.0000 </r>
       <r>   -33.8249     0.0000     2.0000 </r>
       <r>   -33.5690     0.0000     2.0000 </r>
       <r>   -33.3131     0.0000     2.0000 </r>
       <r>   -33.0572     0.0000     2.0000 </r>
       <r>   -32.8014     0.0000     2.0000 </r>
       <r>   -32.5455     0.0000     2.0000 </r>
       <r>   -32.2896     0.0000     2.0000 </r>
       <r>   -32.0337     0.0000     2.0000 </r>
       <r>   -31.7778     0.0000     2.0000 </r>
       <r>   -31.5219     0.0000     2.0000 </r>
       <r>   -31.2661     0.0000     2.0000 </r>
       <r>   -31.0102     0.0000     2.0000 </r>
       <r>   -30.7543     0.0000     2.0000 </r>
       <r>   -30.4984     0.0000     2.0000 </r>
       <r>   -30.2425     0.0000     2.0000 </r>
       <r>   -29.9867     0.0000     2.0000 </r>
       <r>   -29.7308     0.0000     2.0000 </r>
       <r>   -29.4749     0.0000     2.0000 </r>
       <r>   -29.2190     0.0000     2.0000 </r>
       <r>   -28.9631     0.0000     2.0000 </r>
       <r>   -28.7072     0.0000     2.0000 </r>
       <r>   -28.4514     0.0000     2.0000 </r>
       <r>   -28.1955     0.0000     2.0000 </r>
       <r>   -27.9396     0.0000     2.0000 </r>
       <r>   -27.6837     0.0000     2.0000 </r>
       <r>   -27.4278     0.0000     2.0000 </r>
       <r>   -27.1719     0.0000     2.0000 </r>
       <r>   -26.9161     0.0000     2.0000 </r>
       <r>   -26.6602     0.0000     2.0000 </r>
       <r>   -26.4043     0.0000     2.0000 </r>
       <r>   -26.1484     0.0000     2.0000 </r>
       <r>   -25.8925     0.0000     2.0000 </r>
       <r>   -25.6366     0.0000     2.0000 </r>
       <r>   -25.3808     0.0000     2.0000 </r>
       <r>   -25.1249     0.0000     2.0000 </r>
       <r>   -24.8690     0.0000     2.0000 </r>
       <r>   -24.6131     0.0000     2.0000 </r>
       <r>   -24.3572     0.0000     2.0000 </r>
       <r>   -24.1014     0.0000     2.0000 </r>
       <r>   -23.8455     0.0000     2.0000 </r>
       <r>   -23.5896     0.0000     2.0000 </r>
       <r>   -23.3337     0.0000     2.0000 </r>
       <r>   -23.0778     0.0000     2.0000 </r>
       <r>   -22.8219     0.0000     2.0000 </r>
       <r>   -22.5661     0.0000     2.0000 </r>
       <r>   -22.3102     0.0000     2.0000 </r>
       <r>   -22.0543     0.0000     2.0000 </r>
       <r>   -21.7984     0.0000     2.0000 </r>
       <r>   -21.5425     0.0000     2.0000 </r>
       <r>   -21.2866     0.0000     2.0000 </r>
       <r>   -21.0308     0.0000     2.0000 </r>
       <r>   -20.7749     0.0000     2.0000 </r>
       <r>   -20.5190     0.0000     2.0000 </r>
       <r>   -20.2631     0.0000     2.0000 </r>
       <r>   -20.0072     0.0000     2.0000 </r>
       <r>   -19.7513     0.0000     2.0000 </r>
       <r>   -19.4955     0.0000     2.0000 </r>
       <r>   -19.2396     0.0000     2.0000 </r>
       <r>   -18.9837     0.0000     2.0000 </r>
       <r>   -18.7278     0.0000     2.0000 </r>
       <r>   -18.4719     0.0000     2.0000 </r>
       <r>   -18.2161     0.0000     2.0000 </r>
       <r>   -17.9602     0.0000     2.0000 </r>
       <r>   -17.7043     0.0000     2.0000 </r>
       <r>   -17.4484     0.0000     2.0000 </r>
       <r>   -17.1925     0.0000     2.0000 </r>
       <r>   -16.9366     0.0000     2.0000 </r>
       <r>   -16.6808     0.0000     2.0000 </r>
       <r>   -16.4249     0.0000     2.0000 </r>
       <r>   -16.1690     0.0000     2.0000 </r>
       <r>   -15.9131     0.0000     2.0000 </r>
       <r>   -15.6572     0.0000     2.0000 </r>
       <r>   -15.4013     0.0000     2.0000 </r>
       <r>   -15.1455     0.0000     2.0000 </r>
       <r>   -14.8896     0.0000     2.0000 </r>
       <r>   -14.6337     0.0000     2.0000 </r>
       <r>   -14.3778     0.0000     2.0000 </r>
       <r>   -14.1219     0.0000     2.0000 </r>
       <r>   -13.8660     0.0000     2.0000 </r>
       <r>   -13.6102     0.0000     2.0000 </r>
       <r>   -13.3543     0.0000     2.0000 </r>
       <r>   -13.0984     0.0000     2.0000 </r>
       <r>   -12.8425     0.0000     2.0000 </r>
       <r>   -12.5866     0.0000     2.0000 </r>
       <r>   -12.3308     0.0000     2.0000 </r>
       <r>   -12.0749     0.0000     2.0000 </r>
       <r>   -11.8190     0.0000     2.0000 </r>
       <r>   -11.5631     0.0000     2.0000 </r>
       <r>   -11.3072     0.0000     2.0000 </r>
       <r>   -11.0513     0.0000     2.0000 </r>
       <r>   -10.7955     0.0000     2.0000 </r>
       <r>   -10.5396     0.0000     2.0000 </r>
       <r>   -10.2837     0.0000     2.0000 </r>
       <r>   -10.0278     0.0000     2.0000 </r>
       <r>    -9.7719     0.0000     2.0000 </r>
       <r>    -9.5160     0.0000     2.0000 </r>
       <r>    -9.2602     0.0000     2.0000 </r>
       <r>    -9.0043     0.0000     2.0000 </r>
       <r>    -8.7484     0.0000     2.0000 </r>
       <r>    -8.4925     0.0000     2.0000 </r>
       <r>    -8.2366     0.0000     2.0000 </r>
       <r>    -7.9807     0.0050     2.0013 </r>
       <r>    -7.7249     7.8109     3.9999 </r>
       <r>    -7.4690     0.0002     4.0000 </r>
       <r>    -7.2131     0.0000     4.0000 </r>
       <r>    -6.9572     0.0000     4.0000 </r>
       <r>    -6.7013     0.0000     4.0000 </r>
       <r>    -6.4455     0.0000     4.0000 </r>
       <r>    -6.1896     0.0000     4.0000 </r>
       <r>    -5.9337     0.0000     4.0000 </r>
       <r>    -5.6778     0.0000     4.0000 </r>
       <r>    -5.4219     0.0000     4.0000 </r>
       <r>    -5.1660     0.0000     4.0000 </r>
       <r>    -4.9102     0.0000     4.0000 </r>
       <r>    -4.6543     0.0000     4.0000 </r>
       <r>    -4.3984     0.0000     4.0000 </r>
       <r>    -4.1425     0.0000     4.0000 </r>
       <r>    -3.8866     0.0000     4.0000 </r>
       <r>    -3.6307     0.0000     4.0000 </r>
       <r>    -3.3749     0.0000     4.0000 </r>
       <r>    -3.1190     0.0000     4.0000 </r>
       <r>    -2.8631     0.0000     4.0000 </r>
       <r>    -2.6072     0.0000     4.0000 </r>
       <r>    -2.3513     0.0000     4.0000 </r>
       <r>    -2.0954     0.0000     4.0000 </r>
       <r>    -1.8396     0.0000     4.0000 </r>
       <r>    -1.5837     0.0000     4.0000 </r>
       <r>    -1.3278     0.0000     4.0000 </r>
       <r>    -1.0719     0.0000     4.0000 </r>
       <r>    -0.8160     0.0000     4.0000 </r>
       <r>    -0.5602     0.0000     4.0000 </r>
       <r>    -0.3043     0.0000     4.0000 </r>
       <r>    -0.0484     0.0000     4.0000 </r>
       <r>     0.2075     0.0000     4.0000 </r>
       <r>     0.4634     0.0000     4.0000 </r>
       <r>     0.7193     0.0000     4.0000 </r>
       <r>     0.9751     0.0000     4.0000 </r>
       <r>     1.2310     0.0000     4.0000 </r>
       <r>     1.4869     0.0000     4.0000 </r>
       <r>     1.7428     0.0000     4.0000 </r>
       <r>     1.9987     0.0000     4.0000 </r>
       <r>     2.2546     0.0000     4.0000 </r>
       <r>     2.5104     0.0000     4.0000 </r>
       <r>     2.7663     0.0000     4.0000 </r>
       <r>     3.0222     0.0000     4.0000 </r>
       <r>     3.2781     0.0000     4.0000 </r>
       <r>     3.5340     0.0000     4.0000 </r>
       <r>     3.7899     0.0000     4.0000 </r>
       <r>     4.0457     0.0000     4.0000 </r>
       <r>     4.3016     0.0000     4.0000 </r>
       <r>     4.5575     0.0000     4.0000 </r>
       <r>     4.8134     0.0000     4.0000 </r>
       <r>     5.0693     0.0000     4.0000 </r>
       <r>     5.3251     0.0000     4.0000 </r>
       <r>     5.5810     0.0000     4.0000 </r>
       <r>     5.8369     0.0000     4.0000 </r>
       <r>     6.0928     0.0000     4.0000 </r>
       <r>     6.3487     0.0000     4.0000 </r>
       <r>     6.6046     0.0000     4.0000 </r>
       <r>     6.8604     0.0000     4.0000 </r>
       <r>     7.1163     0.0000     4.0000 </r>
       <r>     7.3722     0.0000     4.0000 </r>
       <r>     7.6281     0.0000     4.0000 </r>
       <r>     7.8840     0.0000     4.0000 </r>
       <r>     8.1399     0.0000     4.0000 </r>
       <r>     8.3957     0.0000     4.0000 </r>
       <r>     8.6516     0.0000     4.0000 </r>
       <r>     8.9075     0.0000     4.0000 </r>
       <r>     9.1634     0.0000     4.0000 </r>
       <r>     9.4193     0.0000     4.0000 </r>
       <r>     9.6752     0.0000     4.0000 </r>
       <r>     9.9310     0.0000     4.0000 </r>
       <r>    10.1869     0.0000     4.0000 </r>
       <r>    10.4428     0.0000     4.0000 </r>
       <r>    10.6987     0.0000     4.0000 </r>
       <r>    10.9546     0.0000     4.0000 </r>
       <r>    11.2104     0.0000     4.0000 </r>
       <r>    11.4663     0.0000     4.0000 </r>
       <r>    11.7222     0.0000     4.0000 </r>
       <r>    11.9781     0.0000     4.0000 </r>
       <r>    12.2340     0.0000     4.0000 </r>
       <r>    12.4899     0.0000     4.0000 </r>
       <r>    12.7457     0.0000     4.0000 </r>
       <r>    13.0016     0.0000     4.0000 </r>
       <r>    13.2575     0.0000     4.0000 </r>
       <r>    13.5134     0.0000     4.0000 </r>
       <r>    13.7693     0.0000     4.0000 </r>
       <r>    14.0252     0.0000     4.0000 </r>
       <r>    14.2810     0.0000     4.0000 </r>
       <r>    14.5369     0.0000     4.0000 </r>
       <r>    14.7928     0.0000     4.0000 </r>
       <r>    15.0487     0.0000     4.0000 </r>
       <r>    15.3046     0.0000     4.0000 </r>
       <r>    15.5605     7.3967     5.8927 </r>
       <r>    15.8163     0.4194     6.0000 </r>
       <r>    16.0722     0.0000     6.0000 </r>
       <r>    16.3281     0.0000     6.0000 </r>
       <r>    16.5840     0.0000     6.0000 </r>
       <r>    16.8399     0.0000     6.0000 </r>
       <r>    17.0957     0.0000     6.0000 </r>
       <r>    17.3516     0.0000     6.0000 </r>
       <r>    17.6075     0.0000     6.0000 </r>
       <r>    17.8634     0.0114     6.0029 </r>
       <r>    18.1193    23.4359    11.9998 </r>
       <r>    18.3752     0.0010    12.0000 </r>
       <r>    18.6310     0.0000    12.0000 </r>
       <r>    18.8869     0.0000    12.0000 </r>
       <r>    19.1428     0.0000    12.0000 </r>
       <r>    19.3987     0.0000    12.0000 </r>
       <r>    19.6546     0.0000    12.0000 </r>
       <r>    19.9105     0.0000    12.0000 </r>
       <r>    20.1663     0.0000    12.0000 </r>
       <r>    20.4222     0.0000    12.0000 </r>
       <r>    20.6781     0.0000    12.0000 </r>
       <r>    20.9340     0.0000    12.0000 </r>
       <r>    21.1899     0.0000    12.0000 </r>
       <r>    21.4458     0.0000    12.0000 </r>
       <r>    21.7016     0.0000    12.0000 </r>
       <r>    21.9575     0.0000    12.0000 </r>
       <r>    22.2134     0.0664    12.0170 </r>
       <r>    22.4693    15.5657    16.0000 </r>
       <r>    22.7252     0.0000    16.0000 </r>
       <r>    22.9810     0.0000    16.0000 </r>
       <r>    23.2369     0.0000    16.0000 </r>
       <r>    23.4928     0.0000    16.0000 </r>
       <r>    23.7487     0.0000    16.0000 </r>
       <r>    24.0046     0.0000    16.0000 </r>
       <r>    24.2605     0.0000    16.0000 </r>
       <r>    24.5163     0.0000    16.0000 </r>
       <r>    24.7722     0.0000    16.0000 </r>
       <r>    25.0281     0.0000    16.0000 </r>
       <r>    25.2840     0.0000    16.0000 </r>
       <r>    25.5399     0.0000    16.0000 </r>
       <r>    25.7958     0.0000    16.0000 </r>
      </set>
     </set>
    </array>
   </total>
  </dos>
 </calculation>
 <structure name="finalpos" >
  <crystal>
   <varray name="basis" >
    <v>       0.00000000       2.04150000       2.04150000 </v>
    <v>       2.04150000       0.00000000       2.04150000 </v>
    <v>       2.04150000       2.04150000       0.00000000 </v>
   </varray>
   <i name="volume">     17.01680995 </i>
   <varray name="rec_basis" >
    <v>      -0.24491795       0.24491795       0.24491795 </v>
    <v>       0.24491795      -0.24491795       0.24491795 </v>
    <v>       0.24491795       0.24491795      -0.24491795 </v>
   </varray>
  </crystal>
  <varray name="positions" >
   <v>       0.00000000       0.00000000       0.00000000 </v>
   <v>       0.50000000       0.50000000       0.50000000 </v>
  </varray>
 </structure>
</modeling>
