 running on   32 total cores
 distrk:  each k-point on   32 cores,    1 groups
 distr:  one band on    4 cores,    8 groups
 using from now: INCAR     
 vasp.5.4.4.18Apr17-6-g9f103f2a35 (build Mar 10 2026 18:18:58) gamma-only       
  
 POSCAR found type information on POSCAR  Li H 
 POSCAR found :  2 types and       2 ions
 scaLAPACK will be used
 LDA part: xc-table for Pade appr. of Perdew
 POSCAR, INCAR and KPOINTS ok, starting setup
 FFT: planning ...
 WAVECAR not read
 entering main loop
       N       E                     dE             d eps       ncg     rms          rms(c)
DAV:   1    -0.105798677263E+02   -0.10580E+02   -0.21916E+03    16   0.480E+02
DAV:   2    -0.121102087263E+02   -0.15303E+01   -0.15303E+01    32   0.439E+01
DAV:   3    -0.121122119314E+02   -0.20032E-02   -0.20032E-02    16   0.159E+00
DAV:   4    -0.121122185767E+02   -0.66453E-05   -0.66453E-05    24   0.731E-02
DAV:   5    -0.121122185792E+02   -0.25216E-08   -0.25215E-08    16   0.192E-03    0.200E+00
DAV:   6    -0.121128019720E+02   -0.58339E-03   -0.13031E-02    16   0.409E-01    0.126E+00
DAV:   7    -0.121171269924E+02   -0.43250E-02   -0.19860E-02    16   0.629E-01    0.153E-01
DAV:   8    -0.121171642855E+02   -0.37293E-04   -0.49109E-04    16   0.165E-01    0.219E-02
DAV:   9    -0.121171620951E+02    0.21905E-05   -0.71573E-06    16   0.192E-02    0.423E-03
DAV:  10    -0.121171625548E+02   -0.45973E-06   -0.21544E-07     8   0.575E-03
   1 F= -.12117163E+02 E0= -.12117163E+02  d E =-.602941E-30
 writing wavefunctions
