MgO-HSE06-gamma-vasp                    
   1.00000000000000     
     0.0000000000000000    2.1084999999999998    2.1084999999999998
     2.1084999999999998    0.0000000000000000    2.1084999999999998
     2.1084999999999998    2.1084999999999998    0.0000000000000000
   Mg   O 
     1     1
Direct
  0.0000000000000000  0.0000000000000000  0.0000000000000000
  0.5000000000000000  0.5000000000000000  0.5000000000000000
 
  0.00000000E+00  0.00000000E+00  0.00000000E+00
  0.00000000E+00  0.00000000E+00  0.00000000E+00
