    2    2    1    1
  0.9373911E+01  0.2981869E-09  0.2981869E-09  0.2981869E-09  0.5000000E-15
  1.000000000000000E-004
  CAR 
 MgO-HSE06-gamma-vasp  (HSE06)           
     14      1     16
 
  0.0000000E+00  0.0000000E+00  0.0000000E+00  0.1000000E+01
    1      -41.138006   1.000000
    2      -41.138005   1.000000
    3      -41.137892   1.000000
    4      -14.560897   1.000000
    5        3.788433   1.000000
    6        3.788436   1.000000
    7        3.788537   1.000000
    8       10.032243   0.000000
    9       20.161210   0.000000
   10       20.161211   0.000000
   11       20.161250   0.000000
   12       24.013890   0.000000
   13       25.806337   0.000000
   14       25.806341   0.000000
   15       28.548171   0.000000
   16       28.548171   0.000000
