       N       E                     dE             d eps       ncg     rms          ort
SDA:   1    -0.481734331486E+01   -0.48173E+01   -0.16713E-01    16   0.418E-01 0.000E+00
DMP:   2    -0.482881703228E+01   -0.11474E-01   -0.65690E-02    16   0.105E-01 0.156E-01
DMP:   3    -0.483288137877E+01   -0.40643E-02   -0.28757E-02    16   0.569E-02 0.393E-02
DMP:   4    -0.483498553689E+01   -0.21042E-02   -0.16170E-02    16   0.276E-02 0.337E-02
DMP:   5    -0.483617223352E+01   -0.11867E-02   -0.70685E-03    16   0.104E-02 0.191E-02
DMP:   6    -0.483669986367E+01   -0.52763E-03   -0.31665E-03    16   0.458E-03 0.873E-03
DMP:   7    -0.483694217700E+01   -0.24231E-03   -0.13664E-03    16   0.182E-03 0.419E-03
DMP:   8    -0.483704210396E+01   -0.99927E-04   -0.49516E-04    16   0.639E-04 0.157E-03
DMP:   9    -0.483707928588E+01   -0.37182E-04   -0.20046E-04    16   0.271E-04 0.604E-04
DMP:  10    -0.483709449585E+01   -0.15210E-04   -0.76763E-05    16   0.990E-05 0.243E-04
DMP:  11    -0.483710047685E+01   -0.59810E-05   -0.30671E-05    16   0.394E-05 0.976E-05
DMP:  12    -0.483710287393E+01   -0.23971E-05   -0.11970E-05    16   0.153E-05 0.382E-05
DMP:  13    -0.483710384723E+01   -0.97330E-06   -0.47167E-06    16   0.593E-06 0.154E-05
   1 F= -.48371038E+01 E0= -.48371038E+01  d E =-.843208E-32
