<?xml version="1.0" encoding="ISO-8859-1"?>
<modeling>
 <generator>
  <i name="program" type="string">vasp </i>
  <i name="version" type="string">5.4.4.18Apr17-6-g9f103f2a35  </i>
  <i name="subversion" type="string">(build Mar 10 2026 18:18:58) gamma-only         parallel </i>
  <i name="platform" type="string">LinuxIFC </i>
  <i name="date" type="string">2026 06 25 </i>
  <i name="time" type="string">16:00:22 </i>
 </generator>
 <incar>
  <i type="string" name="SYSTEM"> MgO-HSE06-gamma-vasp  (HSE06)</i>
  <i type="int" name="ISTART">     1</i>
  <i type="string" name="PREC">accurate</i>
  <i type="string" name="ALGO"> Damped</i>
  <i type="int" name="ICHARG">     0</i>
  <i type="int" name="NELM">   120</i>
  <i name="EDIFF">      0.00000100</i>
  <i name="ENCUT">    530.00000000</i>
  <i type="logical" name="LREAL"> F  </i>
  <i name="TIME">      0.40000000</i>
  <i type="int" name="ISMEAR">     0</i>
  <i name="SIGMA">      0.05000000</i>
  <i type="logical" name="LWAVE"> F  </i>
  <i type="logical" name="LCHARG"> F  </i>
  <v type="int" name="KPOINT_BSE">    -1     0     0     0</v>
  <i type="int" name="NELM">   120</i>
  <i type="logical" name="LHFCALC"> T  </i>
  <i name="HFSCREEN">      0.20000000</i>
  <i name="AEXX">      0.25000000</i>
  <i type="string" name="PRECFOCK">fast</i>
 </incar>
 <structure name="primitive_cell" >
  <crystal>
   <varray name="basis" >
    <v>       0.00000000       2.10850000       2.10850000 </v>
    <v>       2.10850000       0.00000000       2.10850000 </v>
    <v>       2.10850000       2.10850000       0.00000000 </v>
   </varray>
   <i name="volume">     18.74782158 </i>
   <varray name="rec_basis" >
    <v>      -0.23713540       0.23713540       0.23713540 </v>
    <v>       0.23713540      -0.23713540       0.23713540 </v>
    <v>       0.23713540       0.23713540      -0.23713540 </v>
   </varray>
  </crystal>
  <varray name="positions" >
   <v>       0.00000000       0.00000000       0.00000000 </v>
   <v>      -0.50000000      -0.50000000      -0.50000000 </v>
  </varray>
 </structure>
 <varray name="primitive_index" >
  <v type="int" >        1 </v>
  <v type="int" >        2 </v>
 </varray>
 <kpoints>
  <generation param="Gamma">
   <v type="int" name="divisions">       1        1        1 </v>
   <v name="usershift">      0.00000000       0.00000000       0.00000000 </v>
   <v name="genvec1">      1.00000000       0.00000000       0.00000000 </v>
   <v name="genvec2">      0.00000000       1.00000000       0.00000000 </v>
   <v name="genvec3">      0.00000000       0.00000000       1.00000000 </v>
   <v name="shift">      0.00000000       0.00000000       0.00000000 </v>
  </generation>
  <varray name="kpointlist" >
   <v>       0.00000000       0.00000000       0.00000000 </v>
  </varray>
  <varray name="weights" >
   <v>       1.00000000 </v>
  </varray>
 </kpoints>
 <parameters>
  <separator name="general" >
   <i type="string" name="SYSTEM">MgO-HSE06-gamma-vasp  (HSE06)</i>
   <i type="logical" name="LCOMPAT"> F  </i>
  </separator>
  <separator name="electronic" >
   <i type="string" name="PREC">accura</i>
   <i name="ENMAX">    530.00000000</i>
   <i name="ENAUG">    758.78000000</i>
   <i name="EDIFF">      0.00000100</i>
   <i type="int" name="IALGO">    53</i>
   <i type="int" name="IWAVPR">    10</i>
   <i type="int" name="NBANDS">    16</i>
   <i name="NELECT">     14.00000000</i>
   <i type="int" name="TURBO">     0</i>
   <i type="int" name="IRESTART">     0</i>
   <i type="int" name="NREBOOT">     0</i>
   <i type="int" name="NMIN">     0</i>
   <i name="EREF">      0.00000000</i>
   <separator name="electronic smearing" >
    <i type="int" name="ISMEAR">     0</i>
    <i name="SIGMA">      0.05000000</i>
    <i name="KSPACING">      0.50000000</i>
    <i type="logical" name="KGAMMA"> T  </i>
   </separator>
   <separator name="electronic projectors" >
    <i type="logical" name="LREAL"> F  </i>
    <v name="ROPT">      0.00000000      0.00000000</v>
    <i type="int" name="LMAXPAW">  -100</i>
    <i type="int" name="LMAXMIX">     2</i>
    <i type="logical" name="NLSPLINE"> F  </i>
   </separator>
   <separator name="electronic startup" >
    <i type="int" name="ISTART">     1</i>
    <i type="int" name="ICHARG">     0</i>
    <i type="int" name="INIWAV">     1</i>
   </separator>
   <separator name="electronic spin" >
    <i type="int" name="ISPIN">     1</i>
    <i type="logical" name="LNONCOLLINEAR"> F  </i>
    <v name="MAGMOM">      1.00000000      1.00000000</v>
    <i name="NUPDOWN">     -1.00000000</i>
    <i type="logical" name="LSORBIT"> F  </i>
    <v name="SAXIS">      0.00000000      0.00000000      1.00000000</v>
    <i type="logical" name="LSPIRAL"> F  </i>
    <v name="QSPIRAL">      0.00000000      0.00000000      0.00000000</v>
    <i type="logical" name="LZEROZ"> F  </i>
   </separator>
   <separator name="electronic exchange-correlation" >
    <i type="logical" name="LASPH"> F  </i>
    <i type="logical" name="LMETAGGA"> F  </i>
   </separator>
   <separator name="electronic convergence" >
    <i type="int" name="NELM">   120</i>
    <i type="int" name="NELMDL">     0</i>
    <i type="int" name="NELMIN">     2</i>
    <i name="ENINI">    530.00000000</i>
    <separator name="electronic convergence detail" >
     <i type="logical" name="LDIAG"> T  </i>
     <i type="logical" name="LSUBROT"> F  </i>
     <i name="WEIMIN">      0.00000000</i>
     <i name="EBREAK">      0.00000002</i>
     <i name="DEPER">      0.30000000</i>
     <i type="int" name="NRMM">     4</i>
     <i name="TIME">      0.40000000</i>
    </separator>
   </separator>
   <separator name="electronic mixer" >
    <i name="AMIX">      0.40000000</i>
    <i name="BMIX">      1.00000000</i>
    <i name="AMIN">      0.10000000</i>
    <i name="AMIX_MAG">      1.60000000</i>
    <i name="BMIX_MAG">      1.00000000</i>
    <separator name="electronic mixer details" >
     <i type="int" name="IMIX">     4</i>
     <i type="logical" name="MIXFIRST"> F  </i>
     <i type="int" name="MAXMIX">   -45</i>
     <i name="WC">    100.00000000</i>
     <i type="int" name="INIMIX">     1</i>
     <i type="int" name="MIXPRE">     1</i>
     <i type="int" name="MREMOVE">     5</i>
    </separator>
   </separator>
   <separator name="electronic dipolcorrection" >
    <i type="logical" name="LDIPOL"> F  </i>
    <i type="logical" name="LMONO"> F  </i>
    <i type="int" name="IDIPOL">     0</i>
    <i name="EPSILON">      1.00000000</i>
    <v name="DIPOL">   -100.00000000   -100.00000000   -100.00000000</v>
    <i name="EFIELD">      0.00000000</i>
   </separator>
  </separator>
  <separator name="grids" >
   <i type="int" name="NGX">    24</i>
   <i type="int" name="NGY">    24</i>
   <i type="int" name="NGZ">    24</i>
   <i type="int" name="NGXF">    48</i>
   <i type="int" name="NGYF">    48</i>
   <i type="int" name="NGZF">    48</i>
   <i type="logical" name="ADDGRID"> F  </i>
  </separator>
  <separator name="ionic" >
   <i type="int" name="NSW">     0</i>
   <i type="int" name="IBRION">    -1</i>
   <i type="int" name="MDALGO">     0</i>
   <i type="int" name="ISIF">     0</i>
   <i name="PSTRESS">      0.00000000</i>
   <i name="EDIFFG">      0.00001000</i>
   <i type="int" name="NFREE">     0</i>
   <i name="POTIM">      0.50000000</i>
   <i name="SMASS">     -3.00000000</i>
   <i name="SCALEE">      1.00000000</i>
  </separator>
  <separator name="ionic md" >
   <i name="TEBEG">      0.00010000</i>
   <i name="TEEND">      0.00010000</i>
   <i type="int" name="NBLOCK">     1</i>
   <i type="int" name="KBLOCK">     1</i>
   <i type="int" name="NPACO">   256</i>
   <i name="APACO">     16.00000000</i>
  </separator>
  <separator name="symmetry" >
   <i type="int" name="ISYM">     3</i>
   <i name="SYMPREC">      0.00001000</i>
  </separator>
  <separator name="dos" >
   <i type="int" name="LORBIT">     0</i>
   <v name="RWIGS">     -1.00000000     -1.00000000</v>
   <i type="int" name="NEDOS">   301</i>
   <i name="EMIN">     10.00000000</i>
   <i name="EMAX">    -10.00000000</i>
   <i name="EFERMI">      0.00000000</i>
  </separator>
  <separator name="writing" >
   <i type="int" name="NWRITE">     2</i>
   <i type="logical" name="LWAVE"> F  </i>
   <i type="logical" name="LDOWNSAMPLE"> F  </i>
   <i type="logical" name="LCHARG"> F  </i>
   <i type="logical" name="LPARD"> F  </i>
   <i type="logical" name="LVTOT"> F  </i>
   <i type="logical" name="LVHAR"> F  </i>
   <i type="logical" name="LELF"> F  </i>
   <i type="logical" name="LOPTICS"> F  </i>
   <v name="STM">      0.00000000      0.00000000      0.00000000      0.00000000      0.00000000      0.00000000      0.00000000</v>
  </separator>
  <separator name="performance" >
   <i type="int" name="NPAR">     8</i>
   <i type="int" name="NSIM">     4</i>
   <i type="int" name="NBLK">    -1</i>
   <i type="logical" name="LPLANE"> T  </i>
   <i type="logical" name="LSCALAPACK"> T  </i>
   <i type="logical" name="LSCAAWARE"> F  </i>
   <i type="logical" name="LSCALU"> F  </i>
   <i type="logical" name="LASYNC"> F  </i>
   <i type="logical" name="LORBITALREAL"> F  </i>
  </separator>
  <separator name="miscellaneous" >
   <i type="int" name="IDIOT">     3</i>
   <i type="int" name="ISPECIAL">     0</i>
   <i type="logical" name="LMUSIC"> F  </i>
   <v name="POMASS">     24.30500000     16.00000000</v>
   <v name="DARWINR">      0.00000000      0.00000000</v>
   <v name="DARWINV">      1.00000000      1.00000000</v>
   <i type="logical" name="LCORR"> T  </i>
  </separator>
  <i type="logical" name="GGA_COMPAT"> T  </i>
  <i type="logical" name="LBERRY"> F  </i>
  <i type="int" name="ICORELEVEL">     0</i>
  <i type="logical" name="LDAU"> F  </i>
  <i type="int" name="I_CONSTRAINED_M">     0</i>
  <separator name="electronic exchange-correlation" >
   <i type="string" name="GGA">--</i>
   <i type="int" name="VOSKOWN">     0</i>
   <i type="logical" name="LHFCALC"> T  </i>
   <i type="string" name="PRECFOCK">fast</i>
   <i type="logical" name="LSYMGRAD"> F  </i>
   <i type="logical" name="LHFONE"> F  </i>
   <i type="logical" name="LRHFCALC"> F  </i>
   <i type="logical" name="LTHOMAS"> F  </i>
   <i type="logical" name="LMODELHF"> F  </i>
   <i name="ENCUT4O">     -1.00000000</i>
   <i type="int" name="EXXOEP">     0</i>
   <i type="int" name="FOURORBIT">     0</i>
   <i name="AEXX">      0.25000000</i>
   <i name="HFALPHA">     -1.00000000</i>
   <i name="MCALPHA">      0.00000000</i>
   <i name="ALDAX">      0.75000000</i>
   <i name="AGGAX">      0.75000000</i>
   <i name="ALDAC">      1.00000000</i>
   <i name="AGGAC">      1.00000000</i>
   <i type="int" name="NKREDX">     1</i>
   <i type="int" name="NKREDY">     1</i>
   <i type="int" name="NKREDZ">     1</i>
   <i type="logical" name="SHIFTRED"> F  </i>
   <i type="logical" name="ODDONLY"> F  </i>
   <i type="logical" name="EVENONLY"> F  </i>
   <i type="int" name="LMAXFOCK">     4</i>
   <i type="int" name="NMAXFOCKAE">     1</i>
   <i type="logical" name="LFOCKAEDFT"> F  </i>
   <i name="HFSCREEN">      0.20000000</i>
   <i name="HFSCREENC">      0.20000000</i>
   <i type="int" name="NBANDSGWLOW">     1</i>
  </separator>
  <separator name="vdW DFT" >
   <i type="logical" name="LUSE_VDW"> F  </i>
   <i name="Zab_VDW">     -0.84910000</i>
   <i name="PARAM1">      0.12340000</i>
   <i name="PARAM2">      1.00000000</i>
   <i name="PARAM3">      0.00000000</i>
  </separator>
  <separator name="model GW" >
   <i type="int" name="MODEL_GW">     0</i>
   <i name="MODEL_EPS0">      5.62434647</i>
   <i name="MODEL_ALPHA">      1.00000000</i>
  </separator>
  <separator name="linear response parameters" >
   <i type="logical" name="LEPSILON"> F  </i>
   <i type="logical" name="LRPA"> F  </i>
   <i type="logical" name="LNABLA"> F  </i>
   <i type="logical" name="LVEL"> F  </i>
   <i type="int" name="KINTER">     0</i>
   <i name="CSHIFT">      0.10000000</i>
   <i name="OMEGAMAX">     -1.00000000</i>
   <i name="DEG_THRESHOLD">      0.00200000</i>
   <i name="RTIME">     -0.10000000</i>
   <i name="WPLASMAI">      0.00000000</i>
   <v name="DFIELD">      0.00000000      0.00000000      0.00000000</v>
   <v name="WPLASMA">      0.00000000      0.00000000      0.00000000      0.00000000      0.00000000      0.00000000      0.00000000      0.00000000      0.00000000</v>
  </separator>
  <separator name="orbital magnetization" >
   <i type="logical" name="NUCIND"> F  </i>
   <v name="MAGPOS">      0.00000000      0.00000000      0.00000000</v>
   <i type="logical" name="LNICSALL"> T  </i>
   <i type="logical" name="ORBITALMAG"> F  </i>
   <i type="logical" name="LMAGBLOCH"> F  </i>
   <i type="logical" name="LCHIMAG"> F  </i>
   <i type="logical" name="LGAUGE"> T  </i>
   <i type="int" name="MAGATOM">     0</i>
   <v name="MAGDIPOL">      0.00000000      0.00000000      0.00000000</v>
   <v name="AVECCONST">      0.00000000      0.00000000      0.00000000</v>
  </separator>
  <separator name="response functions" >
   <i type="logical" name="LADDER"> F  </i>
   <i type="logical" name="LRPAFORCE"> F  </i>
   <i type="logical" name="LFXC"> F  </i>
   <i type="logical" name="LHARTREE"> T  </i>
   <i type="int" name="IBSE">     0</i>
   <v type="int" name="KPOINT">    -1     0     0     0</v>
   <i type="logical" name="LTCTE"> F  </i>
   <i type="logical" name="LTETE"> F  </i>
   <i type="logical" name="LTRIPLET"> F  </i>
   <i type="logical" name="LFXCEPS"> F  </i>
   <i type="logical" name="LFXHEG"> F  </i>
   <i type="int" name="NATURALO">     2</i>
   <i type="logical" name="L2ORDER"> F  </i>
   <i type="logical" name="LMP2LT"> F  </i>
   <i type="logical" name="LUSEW"> F  </i>
   <i name="ENCUTGW">     -2.00000000</i>
   <i name="ENCUTGWSOFT">     -2.00000000</i>
   <i name="ENCUTLF">     -1.00000000</i>
   <i type="int" name="LMAXMP2">    -1</i>
   <i name="SCISSOR">      0.00000000</i>
   <i type="int" name="NOMEGA">     0</i>
   <i type="int" name="NOMEGAR">     0</i>
   <i type="int" name="NBANDSGW">    -1</i>
   <i type="int" name="NBANDSO">    -1</i>
   <i type="int" name="NBANDSV">    -1</i>
   <i type="int" name="NELM">   120</i>
   <i type="int" name="NELMHF">     1</i>
   <i type="int" name="DIM">     3</i>
   <i type="int" name="ANTIRES">     0</i>
   <i name="OMEGAMAX">    -30.00000000</i>
   <i name="OMEGAMIN">    -30.00000000</i>
   <i name="OMEGATL">   -200.00000000</i>
   <i type="int" name="OMEGAGRID">   140</i>
   <i name="CSHIFT">     -0.10000000</i>
   <i type="logical" name="SELFENERGY"> F  </i>
   <i type="logical" name="LSPECTRAL"> F  </i>
   <i type="logical" name="LSPECTRALGW"> F  </i>
   <i type="logical" name="LSINGLES"> F  </i>
   <i type="logical" name="LFERMIGW"> F  </i>
   <i type="logical" name="ODDONLYGW"> F  </i>
   <i type="logical" name="EVENONLYGW"> F  </i>
   <i type="int" name="NKREDLFX">     1</i>
   <i type="int" name="NKREDLFY">     1</i>
   <i type="int" name="NKREDLFZ">     1</i>
   <i type="int" name="MAXMEM">  2800</i>
   <i type="int" name="TELESCOPE">     0</i>
   <i type="int" name="TAUPAR">     1</i>
   <i type="int" name="OMEGAPAR">    -1</i>
   <i name="LAMBDA">      1.00000000</i>
  </separator>
  <separator name="External order field" >
   <i name="OFIELD_KAPPA">      0.00000000</i>
   <v name="OFIELD_K">      0.00000000      0.00000000      0.00000000</v>
   <i name="OFIELD_Q6_NEAR">      0.00000000</i>
   <i name="OFIELD_Q6_FAR">      0.00000000</i>
   <i name="OFIELD_A">      0.00000000</i>
  </separator>
 </parameters>
 <atominfo>
  <atoms>       2 </atoms>
  <types>       2 </types>
  <array name="atoms" >
   <dimension dim="1">ion</dimension>
   <field type="string">element</field>
   <field type="int">atomtype</field>
   <set>
    <rc><c>Mg</c><c>   1</c></rc>
    <rc><c>O </c><c>   2</c></rc>
   </set>
  </array>
  <array name="atomtypes" >
   <dimension dim="1">type</dimension>
   <field type="int">atomspertype</field>
   <field type="string">element</field>
   <field>mass</field>
   <field>valence</field>
   <field type="string">pseudopotential</field>
   <set>
    <rc><c>   1</c><c>Mg</c><c>     24.30500000</c><c>      8.00000000</c><c>  PAW_PBE Mg_pv 13Apr2007               </c></rc>
    <rc><c>   1</c><c>O </c><c>     16.00000000</c><c>      6.00000000</c><c>  PAW_PBE O 08Apr2002                   </c></rc>
   </set>
  </array>
 </atominfo>
 <structure name="initialpos" >
  <crystal>
   <varray name="basis" >
    <v>       0.00000000       2.10850000       2.10850000 </v>
    <v>       2.10850000       0.00000000       2.10850000 </v>
    <v>       2.10850000       2.10850000       0.00000000 </v>
   </varray>
   <i name="volume">     18.74782158 </i>
   <varray name="rec_basis" >
    <v>      -0.23713540       0.23713540       0.23713540 </v>
    <v>       0.23713540      -0.23713540       0.23713540 </v>
    <v>       0.23713540       0.23713540      -0.23713540 </v>
   </varray>
  </crystal>
  <varray name="positions" >
   <v>       0.00000000       0.00000000       0.00000000 </v>
   <v>       0.50000000       0.50000000       0.50000000 </v>
  </varray>
 </structure>
 <calculation>
  <scstep>
   <time name="total">    1.36    1.73</time>
   <energy>
    <i name="alphaZ">     69.29119816 </i>
    <i name="ewald">   -961.40957381 </i>
    <i name="hartreedc">   -324.00458865 </i>
    <i name="XCdc">     43.98397038 </i>
    <i name="pawpsdc">   1187.10290162 </i>
    <i name="pawaedc">  -1299.37400690 </i>
    <i name="eentropy">     -0.00000000 </i>
    <i name="bandstr">   -253.10838491 </i>
    <i name="atom">   1485.84808162 </i>
    <i name="e_fr_energy">     -4.81734331 </i>
    <i name="e_wo_entrp">     -4.81734331 </i>
    <i name="e_0_energy">     -4.81734331 </i>
   </energy>
  </scstep>
  <scstep>
   <time name="total">    3.67    4.92</time>
   <energy>
    <i name="e_fr_energy">     -4.82881703 </i>
    <i name="e_wo_entrp">     -4.82881703 </i>
    <i name="e_0_energy">     -4.82881703 </i>
   </energy>
  </scstep>
  <scstep>
   <time name="total">    2.29    4.88</time>
   <energy>
    <i name="e_fr_energy">     -4.83288138 </i>
    <i name="e_wo_entrp">     -4.83288138 </i>
    <i name="e_0_energy">     -4.83288138 </i>
   </energy>
  </scstep>
  <scstep>
   <time name="total">    2.16    3.91</time>
   <energy>
    <i name="e_fr_energy">     -4.83498554 </i>
    <i name="e_wo_entrp">     -4.83498554 </i>
    <i name="e_0_energy">     -4.83498554 </i>
   </energy>
  </scstep>
  <scstep>
   <time name="total">    2.66    3.98</time>
   <energy>
    <i name="e_fr_energy">     -4.83617223 </i>
    <i name="e_wo_entrp">     -4.83617223 </i>
    <i name="e_0_energy">     -4.83617223 </i>
   </energy>
  </scstep>
  <scstep>
   <time name="total">    1.71    1.72</time>
   <energy>
    <i name="e_fr_energy">     -4.83669986 </i>
    <i name="e_wo_entrp">     -4.83669986 </i>
    <i name="e_0_energy">     -4.83669986 </i>
   </energy>
  </scstep>
  <scstep>
   <time name="total">    1.79    1.81</time>
   <energy>
    <i name="e_fr_energy">     -4.83694218 </i>
    <i name="e_wo_entrp">     -4.83694218 </i>
    <i name="e_0_energy">     -4.83694218 </i>
   </energy>
  </scstep>
  <scstep>
   <time name="total">    0.12    0.13</time>
   <energy>
    <i name="e_fr_energy">     -4.83704210 </i>
    <i name="e_wo_entrp">     -4.83704210 </i>
    <i name="e_0_energy">     -4.83704210 </i>
   </energy>
  </scstep>
  <scstep>
   <time name="total">    3.55    3.65</time>
   <energy>
    <i name="e_fr_energy">     -4.83707929 </i>
    <i name="e_wo_entrp">     -4.83707929 </i>
    <i name="e_0_energy">     -4.83707929 </i>
   </energy>
  </scstep>
  <scstep>
   <time name="total">    3.04    3.81</time>
   <energy>
    <i name="e_fr_energy">     -4.83709450 </i>
    <i name="e_wo_entrp">     -4.83709450 </i>
    <i name="e_0_energy">     -4.83709450 </i>
   </energy>
  </scstep>
  <scstep>
   <time name="total">    4.25    4.43</time>
   <energy>
    <i name="e_fr_energy">     -4.83710048 </i>
    <i name="e_wo_entrp">     -4.83710048 </i>
    <i name="e_0_energy">     -4.83710048 </i>
   </energy>
  </scstep>
  <scstep>
   <time name="total">    4.28    4.36</time>
   <energy>
    <i name="e_fr_energy">     -4.83710287 </i>
    <i name="e_wo_entrp">     -4.83710287 </i>
    <i name="e_0_energy">     -4.83710287 </i>
   </energy>
  </scstep>
  <scstep>
   <time name="total">    8.20    9.05</time>
   <energy>
    <i name="alphaZ">     69.29119816 </i>
    <i name="ewald">   -961.40957381 </i>
    <i name="hartreedc">   -323.98667196 </i>
    <i name="XCdc">     44.00308735 </i>
    <i name="pawpsdc">   1194.60924107 </i>
    <i name="pawaedc">  -1306.88001003 </i>
    <i name="eentropy">     -0.00000000 </i>
    <i name="bandstr">   -253.21868780 </i>
    <i name="atom">   1485.84808162 </i>
    <i name="e_fr_energy">     -4.83710385 </i>
    <i name="e_wo_entrp">     -4.83710385 </i>
    <i name="e_0_energy">     -4.83710385 </i>
   </energy>
  </scstep>
  <structure>
   <crystal>
    <varray name="basis" >
     <v>       0.00000000       2.10850000       2.10850000 </v>
     <v>       2.10850000       0.00000000       2.10850000 </v>
     <v>       2.10850000       2.10850000       0.00000000 </v>
    </varray>
    <i name="volume">     18.74782158 </i>
    <varray name="rec_basis" >
     <v>      -0.23713540       0.23713540       0.23713540 </v>
     <v>       0.23713540      -0.23713540       0.23713540 </v>
     <v>       0.23713540       0.23713540      -0.23713540 </v>
    </varray>
   </crystal>
   <varray name="positions" >
    <v>       0.00000000       0.00000000       0.00000000 </v>
    <v>       0.50000000       0.50000000       0.50000000 </v>
   </varray>
  </structure>
  <varray name="forces" >
   <v>       0.00000000       0.00000000       0.00000000 </v>
   <v>      -0.00000000      -0.00000000      -0.00000000 </v>
  </varray>
  <energy>
   <i name="e_fr_energy">     -4.83710385 </i>
   <i name="e_wo_entrp">     -4.83710385 </i>
   <i name="e_0_energy">     -0.00000000 </i>
  </energy>
  <time name="totalsc">   40.45   49.76</time>
  <eigenvalues>
   <array>
    <dimension dim="1">band</dimension>
    <dimension dim="2">kpoint</dimension>
    <dimension dim="3">spin</dimension>
    <field>eigene</field>
    <field>occ</field>
    <set>
     <set comment="spin 1">
      <set comment="kpoint 1">
       <r>  -41.1380    1.0000 </r>
       <r>  -41.1380    1.0000 </r>
       <r>  -41.1379    1.0000 </r>
       <r>  -14.5609    1.0000 </r>
       <r>    3.7884    1.0000 </r>
       <r>    3.7884    1.0000 </r>
       <r>    3.7885    1.0000 </r>
       <r>   10.0322    0.0000 </r>
       <r>   20.1612    0.0000 </r>
       <r>   20.1612    0.0000 </r>
       <r>   20.1613    0.0000 </r>
       <r>   24.0139    0.0000 </r>
       <r>   25.8063    0.0000 </r>
       <r>   25.8063    0.0000 </r>
       <r>   28.5482    0.0000 </r>
       <r>   28.5482    0.0000 </r>
      </set>
     </set>
    </set>
   </array>
  </eigenvalues>
  <separator name="orbital magnetization" >
   <v name="MAGDIPOLOUT">      0.00000000      0.00000000      0.00000000</v>
  </separator>
  <dos>
   <i name="efermi">      4.21317721 </i>
   <total>
    <array>
     <dimension dim="1">gridpoints</dimension>
     <dimension dim="2">spin</dimension>
     <field>energy</field>
     <field>total</field>
     <field>integrated</field>
     <set>
      <set comment="spin 1">
       <r>   -44.6223     0.0000     0.0000 </r>
       <r>   -44.3668     0.0000     0.0000 </r>
       <r>   -44.1113     0.0000     0.0000 </r>
       <r>   -43.8558     0.0000     0.0000 </r>
       <r>   -43.6003     0.0000     0.0000 </r>
       <r>   -43.3447     0.0000     0.0000 </r>
       <r>   -43.0892     0.0000     0.0000 </r>
       <r>   -42.8337     0.0000     0.0000 </r>
       <r>   -42.5782     0.0000     0.0000 </r>
       <r>   -42.3227     0.0000     0.0000 </r>
       <r>   -42.0672     0.0000     0.0000 </r>
       <r>   -41.8116     0.0000     0.0000 </r>
       <r>   -41.5561     0.0000     0.0000 </r>
       <r>   -41.3006     0.0000     0.0000 </r>
       <r>   -41.0451    23.3807     5.9742 </r>
       <r>   -40.7896     0.1012     6.0000 </r>
       <r>   -40.5341     0.0000     6.0000 </r>
       <r>   -40.2785     0.0000     6.0000 </r>
       <r>   -40.0230     0.0000     6.0000 </r>
       <r>   -39.7675     0.0000     6.0000 </r>
       <r>   -39.5120     0.0000     6.0000 </r>
       <r>   -39.2565     0.0000     6.0000 </r>
       <r>   -39.0010     0.0000     6.0000 </r>
       <r>   -38.7454     0.0000     6.0000 </r>
       <r>   -38.4899     0.0000     6.0000 </r>
       <r>   -38.2344     0.0000     6.0000 </r>
       <r>   -37.9789     0.0000     6.0000 </r>
       <r>   -37.7234     0.0000     6.0000 </r>
       <r>   -37.4679     0.0000     6.0000 </r>
       <r>   -37.2124     0.0000     6.0000 </r>
       <r>   -36.9568     0.0000     6.0000 </r>
       <r>   -36.7013     0.0000     6.0000 </r>
       <r>   -36.4458     0.0000     6.0000 </r>
       <r>   -36.1903     0.0000     6.0000 </r>
       <r>   -35.9348     0.0000     6.0000 </r>
       <r>   -35.6793     0.0000     6.0000 </r>
       <r>   -35.4237     0.0000     6.0000 </r>
       <r>   -35.1682     0.0000     6.0000 </r>
       <r>   -34.9127     0.0000     6.0000 </r>
       <r>   -34.6572     0.0000     6.0000 </r>
       <r>   -34.4017     0.0000     6.0000 </r>
       <r>   -34.1462     0.0000     6.0000 </r>
       <r>   -33.8906     0.0000     6.0000 </r>
       <r>   -33.6351     0.0000     6.0000 </r>
       <r>   -33.3796     0.0000     6.0000 </r>
       <r>   -33.1241     0.0000     6.0000 </r>
       <r>   -32.8686     0.0000     6.0000 </r>
       <r>   -32.6131     0.0000     6.0000 </r>
       <r>   -32.3575     0.0000     6.0000 </r>
       <r>   -32.1020     0.0000     6.0000 </r>
       <r>   -31.8465     0.0000     6.0000 </r>
       <r>   -31.5910     0.0000     6.0000 </r>
       <r>   -31.3355     0.0000     6.0000 </r>
       <r>   -31.0800     0.0000     6.0000 </r>
       <r>   -30.8245     0.0000     6.0000 </r>
       <r>   -30.5689     0.0000     6.0000 </r>
       <r>   -30.3134     0.0000     6.0000 </r>
       <r>   -30.0579     0.0000     6.0000 </r>
       <r>   -29.8024     0.0000     6.0000 </r>
       <r>   -29.5469     0.0000     6.0000 </r>
       <r>   -29.2914     0.0000     6.0000 </r>
       <r>   -29.0358     0.0000     6.0000 </r>
       <r>   -28.7803     0.0000     6.0000 </r>
       <r>   -28.5248     0.0000     6.0000 </r>
       <r>   -28.2693     0.0000     6.0000 </r>
       <r>   -28.0138     0.0000     6.0000 </r>
       <r>   -27.7583     0.0000     6.0000 </r>
       <r>   -27.5027     0.0000     6.0000 </r>
       <r>   -27.2472     0.0000     6.0000 </r>
       <r>   -26.9917     0.0000     6.0000 </r>
       <r>   -26.7362     0.0000     6.0000 </r>
       <r>   -26.4807     0.0000     6.0000 </r>
       <r>   -26.2252     0.0000     6.0000 </r>
       <r>   -25.9696     0.0000     6.0000 </r>
       <r>   -25.7141     0.0000     6.0000 </r>
       <r>   -25.4586     0.0000     6.0000 </r>
       <r>   -25.2031     0.0000     6.0000 </r>
       <r>   -24.9476     0.0000     6.0000 </r>
       <r>   -24.6921     0.0000     6.0000 </r>
       <r>   -24.4366     0.0000     6.0000 </r>
       <r>   -24.1810     0.0000     6.0000 </r>
       <r>   -23.9255     0.0000     6.0000 </r>
       <r>   -23.6700     0.0000     6.0000 </r>
       <r>   -23.4145     0.0000     6.0000 </r>
       <r>   -23.1590     0.0000     6.0000 </r>
       <r>   -22.9035     0.0000     6.0000 </r>
       <r>   -22.6479     0.0000     6.0000 </r>
       <r>   -22.3924     0.0000     6.0000 </r>
       <r>   -22.1369     0.0000     6.0000 </r>
       <r>   -21.8814     0.0000     6.0000 </r>
       <r>   -21.6259     0.0000     6.0000 </r>
       <r>   -21.3704     0.0000     6.0000 </r>
       <r>   -21.1148     0.0000     6.0000 </r>
       <r>   -20.8593     0.0000     6.0000 </r>
       <r>   -20.6038     0.0000     6.0000 </r>
       <r>   -20.3483     0.0000     6.0000 </r>
       <r>   -20.0928     0.0000     6.0000 </r>
       <r>   -19.8373     0.0000     6.0000 </r>
       <r>   -19.5817     0.0000     6.0000 </r>
       <r>   -19.3262     0.0000     6.0000 </r>
       <r>   -19.0707     0.0000     6.0000 </r>
       <r>   -18.8152     0.0000     6.0000 </r>
       <r>   -18.5597     0.0000     6.0000 </r>
       <r>   -18.3042     0.0000     6.0000 </r>
       <r>   -18.0487     0.0000     6.0000 </r>
       <r>   -17.7931     0.0000     6.0000 </r>
       <r>   -17.5376     0.0000     6.0000 </r>
       <r>   -17.2821     0.0000     6.0000 </r>
       <r>   -17.0266     0.0000     6.0000 </r>
       <r>   -16.7711     0.0000     6.0000 </r>
       <r>   -16.5156     0.0000     6.0000 </r>
       <r>   -16.2600     0.0000     6.0000 </r>
       <r>   -16.0045     0.0000     6.0000 </r>
       <r>   -15.7490     0.0000     6.0000 </r>
       <r>   -15.4935     0.0000     6.0000 </r>
       <r>   -15.2380     0.0000     6.0000 </r>
       <r>   -14.9825     0.0000     6.0000 </r>
       <r>   -14.7269     0.0000     6.0000 </r>
       <r>   -14.4714     7.7827     7.9886 </r>
       <r>   -14.2159     0.0446     8.0000 </r>
       <r>   -13.9604     0.0000     8.0000 </r>
       <r>   -13.7049     0.0000     8.0000 </r>
       <r>   -13.4494     0.0000     8.0000 </r>
       <r>   -13.1938     0.0000     8.0000 </r>
       <r>   -12.9383     0.0000     8.0000 </r>
       <r>   -12.6828     0.0000     8.0000 </r>
       <r>   -12.4273     0.0000     8.0000 </r>
       <r>   -12.1718     0.0000     8.0000 </r>
       <r>   -11.9163     0.0000     8.0000 </r>
       <r>   -11.6608     0.0000     8.0000 </r>
       <r>   -11.4052     0.0000     8.0000 </r>
       <r>   -11.1497     0.0000     8.0000 </r>
       <r>   -10.8942     0.0000     8.0000 </r>
       <r>   -10.6387     0.0000     8.0000 </r>
       <r>   -10.3832     0.0000     8.0000 </r>
       <r>   -10.1277     0.0000     8.0000 </r>
       <r>    -9.8721     0.0000     8.0000 </r>
       <r>    -9.6166     0.0000     8.0000 </r>
       <r>    -9.3611     0.0000     8.0000 </r>
       <r>    -9.1056     0.0000     8.0000 </r>
       <r>    -8.8501     0.0000     8.0000 </r>
       <r>    -8.5946     0.0000     8.0000 </r>
       <r>    -8.3390     0.0000     8.0000 </r>
       <r>    -8.0835     0.0000     8.0000 </r>
       <r>    -7.8280     0.0000     8.0000 </r>
       <r>    -7.5725     0.0000     8.0000 </r>
       <r>    -7.3170     0.0000     8.0000 </r>
       <r>    -7.0615     0.0000     8.0000 </r>
       <r>    -6.8059     0.0000     8.0000 </r>
       <r>    -6.5504     0.0000     8.0000 </r>
       <r>    -6.2949     0.0000     8.0000 </r>
       <r>    -6.0394     0.0000     8.0000 </r>
       <r>    -5.7839     0.0000     8.0000 </r>
       <r>    -5.5284     0.0000     8.0000 </r>
       <r>    -5.2729     0.0000     8.0000 </r>
       <r>    -5.0173     0.0000     8.0000 </r>
       <r>    -4.7618     0.0000     8.0000 </r>
       <r>    -4.5063     0.0000     8.0000 </r>
       <r>    -4.2508     0.0000     8.0000 </r>
       <r>    -3.9953     0.0000     8.0000 </r>
       <r>    -3.7398     0.0000     8.0000 </r>
       <r>    -3.4842     0.0000     8.0000 </r>
       <r>    -3.2287     0.0000     8.0000 </r>
       <r>    -2.9732     0.0000     8.0000 </r>
       <r>    -2.7177     0.0000     8.0000 </r>
       <r>    -2.4622     0.0000     8.0000 </r>
       <r>    -2.2067     0.0000     8.0000 </r>
       <r>    -1.9511     0.0000     8.0000 </r>
       <r>    -1.6956     0.0000     8.0000 </r>
       <r>    -1.4401     0.0000     8.0000 </r>
       <r>    -1.1846     0.0000     8.0000 </r>
       <r>    -0.9291     0.0000     8.0000 </r>
       <r>    -0.6736     0.0000     8.0000 </r>
       <r>    -0.4180     0.0000     8.0000 </r>
       <r>    -0.1625     0.0000     8.0000 </r>
       <r>     0.0930     0.0000     8.0000 </r>
       <r>     0.3485     0.0000     8.0000 </r>
       <r>     0.6040     0.0000     8.0000 </r>
       <r>     0.8595     0.0000     8.0000 </r>
       <r>     1.1150     0.0000     8.0000 </r>
       <r>     1.3706     0.0000     8.0000 </r>
       <r>     1.6261     0.0000     8.0000 </r>
       <r>     1.8816     0.0000     8.0000 </r>
       <r>     2.1371     0.0000     8.0000 </r>
       <r>     2.3926     0.0000     8.0000 </r>
       <r>     2.6481     0.0000     8.0000 </r>
       <r>     2.9037     0.0000     8.0000 </r>
       <r>     3.1592     0.0000     8.0000 </r>
       <r>     3.4147     0.0000     8.0000 </r>
       <r>     3.6702     0.0097     8.0025 </r>
       <r>     3.9257    23.4710    13.9997 </r>
       <r>     4.1812     0.0012    14.0000 </r>
       <r>     4.4368     0.0000    14.0000 </r>
       <r>     4.6923     0.0000    14.0000 </r>
       <r>     4.9478     0.0000    14.0000 </r>
       <r>     5.2033     0.0000    14.0000 </r>
       <r>     5.4588     0.0000    14.0000 </r>
       <r>     5.7143     0.0000    14.0000 </r>
       <r>     5.9698     0.0000    14.0000 </r>
       <r>     6.2254     0.0000    14.0000 </r>
       <r>     6.4809     0.0000    14.0000 </r>
       <r>     6.7364     0.0000    14.0000 </r>
       <r>     6.9919     0.0000    14.0000 </r>
       <r>     7.2474     0.0000    14.0000 </r>
       <r>     7.5029     0.0000    14.0000 </r>
       <r>     7.7585     0.0000    14.0000 </r>
       <r>     8.0140     0.0000    14.0000 </r>
       <r>     8.2695     0.0000    14.0000 </r>
       <r>     8.5250     0.0000    14.0000 </r>
       <r>     8.7805     0.0000    14.0000 </r>
       <r>     9.0360     0.0000    14.0000 </r>
       <r>     9.2916     0.0000    14.0000 </r>
       <r>     9.5471     0.0000    14.0000 </r>
       <r>     9.8026     0.0000    14.0000 </r>
       <r>    10.0581     6.0095    15.5355 </r>
       <r>    10.3136     1.8178    16.0000 </r>
       <r>    10.5691     0.0000    16.0000 </r>
       <r>    10.8247     0.0000    16.0000 </r>
       <r>    11.0802     0.0000    16.0000 </r>
       <r>    11.3357     0.0000    16.0000 </r>
       <r>    11.5912     0.0000    16.0000 </r>
       <r>    11.8467     0.0000    16.0000 </r>
       <r>    12.1022     0.0000    16.0000 </r>
       <r>    12.3577     0.0000    16.0000 </r>
       <r>    12.6133     0.0000    16.0000 </r>
       <r>    12.8688     0.0000    16.0000 </r>
       <r>    13.1243     0.0000    16.0000 </r>
       <r>    13.3798     0.0000    16.0000 </r>
       <r>    13.6353     0.0000    16.0000 </r>
       <r>    13.8908     0.0000    16.0000 </r>
       <r>    14.1464     0.0000    16.0000 </r>
       <r>    14.4019     0.0000    16.0000 </r>
       <r>    14.6574     0.0000    16.0000 </r>
       <r>    14.9129     0.0000    16.0000 </r>
       <r>    15.1684     0.0000    16.0000 </r>
       <r>    15.4239     0.0000    16.0000 </r>
       <r>    15.6795     0.0000    16.0000 </r>
       <r>    15.9350     0.0000    16.0000 </r>
       <r>    16.1905     0.0000    16.0000 </r>
       <r>    16.4460     0.0000    16.0000 </r>
       <r>    16.7015     0.0000    16.0000 </r>
       <r>    16.9570     0.0000    16.0000 </r>
       <r>    17.2126     0.0000    16.0000 </r>
       <r>    17.4681     0.0000    16.0000 </r>
       <r>    17.7236     0.0000    16.0000 </r>
       <r>    17.9791     0.0000    16.0000 </r>
       <r>    18.2346     0.0000    16.0000 </r>
       <r>    18.4901     0.0000    16.0000 </r>
       <r>    18.7456     0.0000    16.0000 </r>
       <r>    19.0012     0.0000    16.0000 </r>
       <r>    19.2567     0.0000    16.0000 </r>
       <r>    19.5122     0.0000    16.0000 </r>
       <r>    19.7677     0.0000    16.0000 </r>
       <r>    20.0232     0.0011    16.0003 </r>
       <r>    20.2787    23.4704    21.9973 </r>
       <r>    20.5343     0.0104    22.0000 </r>
       <r>    20.7898     0.0000    22.0000 </r>
       <r>    21.0453     0.0000    22.0000 </r>
       <r>    21.3008     0.0000    22.0000 </r>
       <r>    21.5563     0.0000    22.0000 </r>
       <r>    21.8118     0.0000    22.0000 </r>
       <r>    22.0674     0.0000    22.0000 </r>
       <r>    22.3229     0.0000    22.0000 </r>
       <r>    22.5784     0.0000    22.0000 </r>
       <r>    22.8339     0.0000    22.0000 </r>
       <r>    23.0894     0.0000    22.0000 </r>
       <r>    23.3449     0.0000    22.0000 </r>
       <r>    23.6005     0.0000    22.0000 </r>
       <r>    23.8560     0.0000    22.0000 </r>
       <r>    24.1115     7.8047    23.9942 </r>
       <r>    24.3670     0.0226    24.0000 </r>
       <r>    24.6225     0.0000    24.0000 </r>
       <r>    24.8780     0.0000    24.0000 </r>
       <r>    25.1335     0.0000    24.0000 </r>
       <r>    25.3891     0.0000    24.0000 </r>
       <r>    25.6446     0.0000    24.0000 </r>
       <r>    25.9001    15.5919    27.9840 </r>
       <r>    26.1556     0.0627    28.0000 </r>
       <r>    26.4111     0.0000    28.0000 </r>
       <r>    26.6666     0.0000    28.0000 </r>
       <r>    26.9222     0.0000    28.0000 </r>
       <r>    27.1777     0.0000    28.0000 </r>
       <r>    27.4332     0.0000    28.0000 </r>
       <r>    27.6887     0.0000    28.0000 </r>
       <r>    27.9442     0.0000    28.0000 </r>
       <r>    28.1997     0.0000    28.0000 </r>
       <r>    28.4553     0.0672    28.0172 </r>
       <r>    28.7108    15.5873    32.0000 </r>
       <r>    28.9663     0.0000    32.0000 </r>
       <r>    29.2218     0.0000    32.0000 </r>
       <r>    29.4773     0.0000    32.0000 </r>
       <r>    29.7328     0.0000    32.0000 </r>
       <r>    29.9884     0.0000    32.0000 </r>
       <r>    30.2439     0.0000    32.0000 </r>
       <r>    30.4994     0.0000    32.0000 </r>
       <r>    30.7549     0.0000    32.0000 </r>
       <r>    31.0104     0.0000    32.0000 </r>
       <r>    31.2659     0.0000    32.0000 </r>
       <r>    31.5214     0.0000    32.0000 </r>
       <r>    31.7770     0.0000    32.0000 </r>
       <r>    32.0325     0.0000    32.0000 </r>
      </set>
     </set>
    </array>
   </total>
  </dos>
 </calculation>
 <structure name="finalpos" >
  <crystal>
   <varray name="basis" >
    <v>       0.00000000       2.10850000       2.10850000 </v>
    <v>       2.10850000       0.00000000       2.10850000 </v>
    <v>       2.10850000       2.10850000       0.00000000 </v>
   </varray>
   <i name="volume">     18.74782158 </i>
   <varray name="rec_basis" >
    <v>      -0.23713540       0.23713540       0.23713540 </v>
    <v>       0.23713540      -0.23713540       0.23713540 </v>
    <v>       0.23713540       0.23713540      -0.23713540 </v>
   </varray>
  </crystal>
  <varray name="positions" >
   <v>       0.00000000       0.00000000       0.00000000 </v>
   <v>       0.50000000       0.50000000       0.50000000 </v>
  </varray>
 </structure>
</modeling>
