 running on   32 total cores
 distrk:  each k-point on   32 cores,    1 groups
 distr:  one band on    4 cores,    8 groups
 using from now: INCAR     
 vasp.5.4.4.18Apr17-6-g9f103f2a35 (build Mar 10 2026 18:18:58) gamma-only       
  
 POSCAR found type information on POSCAR  Mg O 
 POSCAR found :  2 types and       2 ions
 scaLAPACK will be used
 LDA part: xc-table for Pade appr. of Perdew
 POSCAR, INCAR and KPOINTS ok, starting setup
 FFT: planning ...
 WAVECAR not read
 entering main loop
       N       E                     dE             d eps       ncg     rms          rms(c)
DAV:   1     0.167623072770E+03    0.16762E+03   -0.12321E+04    32   0.896E+02
DAV:   2    -0.292672710362E+01   -0.17055E+03   -0.14720E+03    48   0.311E+02
DAV:   3    -0.645003871043E+01   -0.35233E+01   -0.34987E+01    32   0.551E+01
DAV:   4    -0.646154123095E+01   -0.11503E-01   -0.11502E-01    32   0.355E+00
DAV:   5    -0.646161673835E+01   -0.75507E-04   -0.75508E-04    32   0.238E-01    0.128E+01
DAV:   6    -0.900178924446E+00    0.55614E+01   -0.19247E+01    40   0.216E+01    0.371E+00
DAV:   7    -0.850060693112E+00    0.50118E-01   -0.10091E+00    32   0.492E+00    0.264E+00
DAV:   8    -0.944979376244E+00   -0.94919E-01   -0.14511E-01    32   0.324E+00    0.408E-01
DAV:   9    -0.943094955001E+00    0.18844E-02   -0.32397E-02    32   0.941E-01    0.132E-01
DAV:  10    -0.943164993391E+00   -0.70038E-04   -0.14212E-03    32   0.256E-01    0.553E-02
DAV:  11    -0.943151635215E+00    0.13358E-04   -0.79150E-05    32   0.718E-02    0.574E-03
DAV:  12    -0.943152114039E+00   -0.47882E-06   -0.48039E-07    48   0.766E-03
   1 F= -.94315211E+00 E0= -.94315211E+00  d E =-.764942E-27
 writing wavefunctions
