 DBCSR| CPU Multiplication driver                                           XSMM (U)
 DBCSR| Multrec recursion limit                                              512 (U)
 DBCSR| Multiplication stack size                                           1000 (D)
 DBCSR| Maximum elements for images                                    UNLIMITED (U)
 DBCSR| Multiplicative factor virtual images                                   1 (U)
 DBCSR| Use multiplication densification                                       T (D)
 DBCSR| Multiplication size stacks                                             3 (U)
 DBCSR| Use memory pool for CPU allocation                                     F (U)
 DBCSR| Number of 3D layers                                               SINGLE (U)
 DBCSR| Use MPI memory allocation                                              F (U)
 DBCSR| Use RMA algorithm                                                      F (U)
 DBCSR| Use Communication thread                                               T (U)
 DBCSR| Communication thread load                                             87 (D)
 DBCSR| MPI: My process id                                                     0
 DBCSR| MPI: Number of processes                                              32
 DBCSR| OMP: Current number of threads                                         1
 DBCSR| OMP: Max number of threads                                             1
 DBCSR| Split modifier for TAS multiplication algorithm                  1.0E+00 (U)


  **** **** ******  **  PROGRAM STARTED AT               2026-06-28 02:03:06.342
 ***** ** ***  *** **   PROGRAM STARTED ON                                  cu08
 **    ****   ******    PROGRAM STARTED BY                                 rudin
 ***** **    ** ** **   PROGRAM PROCESS ID                               1280875
  **** **  *******  **  PROGRAM STARTED IN /home/rudin/code/kylin-pbc/art/exampl
                                           e/scaling/Si32-HSE06

 CP2K| version string:                                       CP2K version 2024.3
 CP2K| source code revision number:                                  git:6712648
 CP2K| cp2kflags: omp libint fftw3 libxc libgrpp elpa parallel scalapack mpi_f08
 CP2K|             cosma xsmm plumed2 spglib mkl libvori libbqb
 CP2K| is freely available from                            https://www.cp2k.org/
 CP2K| Program compiled at            2026年 01月 07日 星期三 01:43:54 CST
 CP2K| Program compiled on                                                  mu01
 CP2K| Program compiled for                                                local
 CP2K| Data directory path    /software/Applications/cp2k/cp2k-2024.3-oneapi-202
 CP2K| Input file name                                                  cp2k.inp
 
 GLOBAL| Force Environment number                                              1
 GLOBAL| Basis set file name                                        BASIS_MOLOPT
 GLOBAL| Potential file name                                      GTH_POTENTIALS
 GLOBAL| MM Potential file name                                     MM_POTENTIAL
 GLOBAL| Coordinate file name                                      __STD_INPUT__
 GLOBAL| Method name                                                        CP2K
 GLOBAL| Project name                                            Si32-HSE06-ADMM
 GLOBAL| Run type                                                         ENERGY
 GLOBAL| FFT library                                                       FFTW3
 GLOBAL| Diagonalization library                                            ELPA
 GLOBAL| DGEMM library                                                      BLAS
 GLOBAL| Minimum number of eigenvectors for ELPA usage                        16
 GLOBAL| Orthonormality check for eigenvectors                          DISABLED
 GLOBAL| Matrix multiplication library                                     COSMA
 GLOBAL| All-to-all communication in single precision                          F
 GLOBAL| FFTs using library dependent lengths                                  F
 GLOBAL| Grid backend                                                       AUTO
 GLOBAL| Global print level                                               MEDIUM
 GLOBAL| MPI I/O enabled                                                       T
 GLOBAL| Total number of message passing processes                            32
 GLOBAL| Number of threads for this process                                    1
 GLOBAL| This output is from process                                           0
 GLOBAL| Stack size for threads created by OpenMP (OMP_STACKSIZE)        default
 GLOBAL| CPU model name                              INTEL(R) XEON(R) GOLD 6544Y
 GLOBAL| CPUID                                                              1003

 MEMORY| system memory details [Kb]
 MEMORY|                        rank 0           min           max       average
 MEMORY| MemTotal            527978288     527978288     527978288     527978288
 MEMORY| MemFree             436071524     436071524     436071524     436071524
 MEMORY| Buffers              13132448      13132448      13132448      13132448
 MEMORY| Cached               63645804      63645804      63645804      63645804
 MEMORY| Slab                  9144684       9144684       9144684       9144684
 MEMORY| SReclaimable          6763636       6763636       6763636       6763636
 MEMORY| MemLikelyFree       519613412     519613412     519613412     519613412


 *** Fundamental physical constants (SI units) ***

 *** Literature: B. J. Mohr and B. N. Taylor,
 ***             CODATA recommended values of the fundamental physical
 ***             constants: 2006, Web Version 5.1
 ***             http://physics.nist.gov/constants

 Speed of light in vacuum [m/s]                             2.99792458000000E+08
 Magnetic constant or permeability of vacuum [N/A**2]       1.25663706143592E-06
 Electric constant or permittivity of vacuum [F/m]          8.85418781762039E-12
 Planck constant (h) [J*s]                                  6.62606896000000E-34
 Planck constant (h-bar) [J*s]                              1.05457162825177E-34
 Elementary charge [C]                                      1.60217648700000E-19
 Electron mass [kg]                                         9.10938215000000E-31
 Electron g factor [ ]                                     -2.00231930436220E+00
 Proton mass [kg]                                           1.67262163700000E-27
 Fine-structure constant                                    7.29735253760000E-03
 Rydberg constant [1/m]                                     1.09737315685270E+07
 Avogadro constant [1/mol]                                  6.02214179000000E+23
 Boltzmann constant [J/K]                                   1.38065040000000E-23
 Atomic mass unit [kg]                                      1.66053878200000E-27
 Bohr radius [m]                                            5.29177208590000E-11

 *** Conversion factors ***

 [u] -> [a.u.]                                              1.82288848426455E+03
 [Angstrom] -> [Bohr] = [a.u.]                              1.88972613288564E+00
 [a.u.] = [Bohr] -> [Angstrom]                              5.29177208590000E-01
 [a.u.] -> [s]                                              2.41888432650478E-17
 [a.u.] -> [fs]                                             2.41888432650478E-02
 [a.u.] -> [J]                                              4.35974393937059E-18
 [a.u.] -> [N]                                              8.23872205491840E-08
 [a.u.] -> [K]                                              3.15774647902944E+05
 [a.u.] -> [kJ/mol]                                         2.62549961709828E+03
 [a.u.] -> [kcal/mol]                                       6.27509468713739E+02
 [a.u.] -> [Pa]                                             2.94210107994716E+13
 [a.u.] -> [bar]                                            2.94210107994716E+08
 [a.u.] -> [atm]                                            2.90362800883016E+08
 [a.u.] -> [eV]                                             2.72113838565563E+01
 [a.u.] -> [Hz]                                             6.57968392072181E+15
 [a.u.] -> [1/cm] (wave numbers)                            2.19474631370540E+05
 [a.u./Bohr**2] -> [1/cm]                                   5.14048714338585E+03
 

 CELL_TOP| Volume [angstrom^3]:                                       640.765912
 CELL_TOP| Vector a [angstrom    10.862     0.000     0.000   |a| =    10.862000
 CELL_TOP| Vector b [angstrom     0.000    10.862     0.000   |b| =    10.862000
 CELL_TOP| Vector c [angstrom     0.000     0.000     5.431   |c| =     5.431000
 CELL_TOP| Angle (b,c), alpha [degree]:                                90.000000
 CELL_TOP| Angle (a,c), beta  [degree]:                                90.000000
 CELL_TOP| Angle (a,b), gamma [degree]:                                90.000000
 CELL_TOP| Numerically orthorhombic:                                         YES
 CELL_TOP| Periodicity                                                       XYZ
 
 GENERATE|  Preliminary Number of Bonds generated:                             0
 GENERATE|  Achieved consistency in connectivity generation.

 CELL| Volume [angstrom^3]:                                           640.765912
 CELL| Vector a [angstrom]:      10.862     0.000     0.000   |a| =    10.862000
 CELL| Vector b [angstrom]:       0.000    10.862     0.000   |b| =    10.862000
 CELL| Vector c [angstrom]:       0.000     0.000     5.431   |c| =     5.431000
 CELL| Angle (b,c), alpha [degree]:                                    90.000000
 CELL| Angle (a,c), beta  [degree]:                                    90.000000
 CELL| Angle (a,b), gamma [degree]:                                    90.000000
 CELL| Numerically orthorhombic:                                             YES
 CELL| Periodicity                                                           XYZ

 CELL_REF| Volume [angstrom^3]:                                       640.765912
 CELL_REF| Vector a [angstrom    10.862     0.000     0.000   |a| =    10.862000
 CELL_REF| Vector b [angstrom     0.000    10.862     0.000   |b| =    10.862000
 CELL_REF| Vector c [angstrom     0.000     0.000     5.431   |c| =     5.431000
 CELL_REF| Angle (b,c), alpha [degree]:                                90.000000
 CELL_REF| Angle (a,c), beta  [degree]:                                90.000000
 CELL_REF| Angle (a,b), gamma [degree]:                                90.000000
 CELL_REF| Numerically orthorhombic:                                         YES
 CELL_REF| Periodicity                                                       XYZ

 *******************************************************************************
 *******************************************************************************
 **                                                                           **
 **     #####                         ##              ##                      **
 **    ##   ##            ##          ##              ##                      **
 **   ##     ##                       ##            ######                    **
 **   ##     ##  ##   ##  ##   #####  ##  ##   ####   ##    #####    #####    **
 **   ##     ##  ##   ##  ##  ##      ## ##   ##      ##   ##   ##  ##   ##   **
 **   ##  ## ##  ##   ##  ##  ##      ####     ###    ##   ######   ######    **
 **    ##  ###   ##   ##  ##  ##      ## ##      ##   ##   ##       ##        **
 **     #######   #####   ##   #####  ##  ##  ####    ##    #####   ##        **
 **           ##                                                    ##        **
 **                                                                           **
 **                                                ... make the atoms dance   **
 **                                                                           **
 **            Copyright (C) by CP2K developers group (2000-2024)             **
 **                      J. Chem. Phys. 152, 194103 (2020)                    **
 **                                                                           **
 *******************************************************************************

 DFT| Spin restricted Kohn-Sham (RKS) calculation                            RKS
 DFT| Multiplicity                                                             1
 DFT| Number of spin states                                                    1
 DFT| Charge                                                                   0
 DFT| Self-interaction correction (SIC)                                       NO
 DFT| Cutoffs: density                                              1.000000E-10
 DFT|          gradient                                             1.000000E-10
 DFT|          tau                                                  1.000000E-10
 DFT|          cutoff_smoothing_range                               0.000000E+00
 DFT| XC density smoothing                                                  NONE
 DFT| XC derivatives                                                          PW

 FUNCTIONAL| PBE:
 FUNCTIONAL| J.P.Perdew, K.Burke, M.Ernzerhof, Phys. Rev. Letter, vol. 77, n 18,
 FUNCTIONAL|  pp. 3865-3868, (1996)sx=0.000sc=1.000{spin unpolarized}           
 FUNCTIONAL| XWPBE:
 FUNCTIONAL| Jochen Heyd and Gustavo E. Scuseria, J. Chem. Phys., 120, 7274 {LDA
 FUNCTIONAL|  version}                                                          


 QS| Method:                                                                 GPW
 QS| Density plane wave grid type                        NON-SPHERICAL FULLSPACE
 QS| Number of grid levels:                                                    4
 QS| Density cutoff [a.u.]:                                                300.0
 QS| Multi grid cutoff [a.u.]: 1) grid level                               300.0
 QS|                           2) grid level                               100.0
 QS|                           3) grid level                                33.3
 QS|                           4) grid level                                11.1
 QS| Grid level progression factor:                                          3.0
 QS| Relative density cutoff [a.u.]:                                        30.0
 QS| Interaction thresholds: eps_pgf_orb:                                1.0E-06
 QS|                         eps_filter_matrix:                          0.0E+00
 QS|                         eps_core_charge:                            1.0E-14
 QS|                         eps_rho_gspace:                             1.0E-12
 QS|                         eps_rho_rspace:                             1.0E-12
 QS|                         eps_gvg_rspace:                             1.0E-06
 QS|                         eps_ppl:                                    1.0E-02
 QS|                         eps_ppnl:                                   1.0E-08

 ADMM| Specific ADMM type specified                                        ADMMS
 ADMM| Density matrix purification method                                   NONE
 ADMM| Orbital projection with charge constrain
 ADMM| Use Merlot (2014) scaling model
 ADMM| eps_filter                                                0.000000000    
 ADMM| Exchange functional in correction term                            (W)PBEX



 ATOMIC KIND INFORMATION

  1. Atomic kind: Si                                    Number of atoms:      32

     Orbital Basis Set                                        DZVP-MOLOPT-SR-GTH

       Number of orbital shell sets:                                           1
       Number of orbital shells:                                               5
       Number of primitive Cartesian functions:                                4
       Number of Cartesian basis functions:                                   14
       Number of spherical basis functions:                                   13
       Norm type:                                                              2

       Normalised Cartesian orbitals:

                        Set   Shell   Orbital            Exponent    Coefficient

                          1       1    2s                1.256768       0.294045
                                                         0.506394      -0.015884
                                                         0.238884      -0.207657
                                                         0.087337      -0.036225

                          1       2    3s                1.256768      -1.532347
                                                         0.506394       0.524539
                                                         0.238884       0.025013
                                                         0.087337      -0.052203

                          1       3    3px               1.256768       0.152274
                                                         0.506394      -0.154145
                                                         0.238884      -0.115581
                                                         0.087337      -0.028372
                          1       3    3py               1.256768       0.152274
                                                         0.506394      -0.154145
                                                         0.238884      -0.115581
                                                         0.087337      -0.028372
                          1       3    3pz               1.256768       0.152274
                                                         0.506394      -0.154145
                                                         0.238884      -0.115581
                                                         0.087337      -0.028372

                          1       4    4px               1.256768       0.313378
                                                         0.506394      -0.415360
                                                         0.238884      -0.022539
                                                         0.087337       0.078473
                          1       4    4py               1.256768       0.313378
                                                         0.506394      -0.415360
                                                         0.238884      -0.022539
                                                         0.087337       0.078473
                          1       4    4pz               1.256768       0.313378
                                                         0.506394      -0.415360
                                                         0.238884      -0.022539
                                                         0.087337       0.078473

                          1       5    4dx2              1.256768       0.325879
                                                         0.506394       0.163831
                                                         0.238884       0.044076
                                                         0.087337       0.010608
                          1       5    4dxy              1.256768       0.564439
                                                         0.506394       0.283764
                                                         0.238884       0.076342
                                                         0.087337       0.018373
                          1       5    4dxz              1.256768       0.564439
                                                         0.506394       0.283764
                                                         0.238884       0.076342
                                                         0.087337       0.018373
                          1       5    4dy2              1.256768       0.325879
                                                         0.506394       0.163831
                                                         0.238884       0.044076
                                                         0.087337       0.010608
                          1       5    4dyz              1.256768       0.564439
                                                         0.506394       0.283764
                                                         0.238884       0.076342
                                                         0.087337       0.018373
                          1       5    4dz2              1.256768       0.325879
                                                         0.506394       0.163831
                                                         0.238884       0.044076
                                                         0.087337       0.010608

     Auxiliary Fit Basis Set                                              cpFIT3

       Number of orbital shell sets:                                           5
       Number of orbital shells:                                               5
       Number of primitive Cartesian functions:                                7
       Number of Cartesian basis functions:                                   14
       Number of spherical basis functions:                                   13
       Norm type:                                                              2

       Normalised Cartesian orbitals:

                        Set   Shell   Orbital            Exponent    Coefficient

                          1       1    1px               0.089490       0.069768
                          1       1    1py               0.089490       0.069768
                          1       1    1pz               0.089490       0.069768

                          2       1    1s                0.096480       0.123378

                          3       1    1s                0.246960      -0.309315
                                                         1.277560       0.429908

                          4       1    1px               0.295630       0.313983
                                                         2.202470      -0.124968
                          4       1    1py               0.295630       0.313983
                                                         2.202470      -0.124968
                          4       1    1pz               0.295630       0.313983
                                                         2.202470      -0.124968

                          5       1    1dx2              0.450000       0.406941
                          5       1    1dxy              0.450000       0.704842
                          5       1    1dxz              0.450000       0.704842
                          5       1    1dy2              0.450000       0.406941
                          5       1    1dyz              0.450000       0.704842
                          5       1    1dz2              0.450000       0.406941

     RI HFX Basis Set                                           Si-RI-AUX-cpFIT3

       Number of orbital shell sets:                                           2
       Number of orbital shells:                                              19
       Number of primitive Cartesian functions:                                7
       Number of Cartesian basis functions:                                   70
       Number of spherical basis functions:                                   61
       Norm type:                                                              2

       Normalised Cartesian orbitals:

                        Set   Shell   Orbital            Exponent    Coefficient

                          1       1    1s                3.381949       1.777401
                                                         1.878860       0.000000
                                                         1.043811       0.000000
                                                         0.579895       0.000000
                                                         0.322164       0.000000
                                                         0.178980       0.000000

                          1       2    2s                3.381949      -4.815164
                                                         1.878860       3.302892
                                                         1.043811       0.000000
                                                         0.579895       0.000000
                                                         0.322164       0.000000
                                                         0.178980       0.000000

                          1       3    3s                3.381949       7.218514
                                                         1.878860      -9.704678
                                                         1.043811       3.667693
                                                         0.579895       0.000000
                                                         0.322164       0.000000
                                                         0.178980       0.000000

                          1       4    4s                3.381949      -7.929171
                                                         1.878860      14.922211
                                                         1.043811     -11.057577
                                                         0.579895       3.167702
                                                         0.322164       0.000000
                                                         0.178980       0.000000

                          1       5    5s                3.381949       7.312486
                                                         1.878860     -16.560331
                                                         1.043811      17.180156
                                                         0.579895      -9.653519
                                                         0.322164       2.393165
                                                         0.178980       0.000000

                          1       6    6s                3.381949      -6.110175
                                                         1.878860      15.342782
                                                         1.043811     -19.154226
                                                         0.579895      15.070458
                                                         0.322164      -7.330131
                                                         0.178980       1.681102

                          1       7    2px               3.381949       6.537307
                                                         1.878860       0.000000
                                                         1.043811       0.000000
                                                         0.579895       0.000000
                                                         0.322164       0.000000
                                                         0.178980       0.000000
                          1       7    2py               3.381949       6.537307
                                                         1.878860       0.000000
                                                         1.043811       0.000000
                                                         0.579895       0.000000
                                                         0.322164       0.000000
                                                         0.178980       0.000000
                          1       7    2pz               3.381949       6.537307
                                                         1.878860       0.000000
                                                         1.043811       0.000000
                                                         0.579895       0.000000
                                                         0.322164       0.000000
                                                         0.178980       0.000000

                          1       8    3px               3.381949     -13.421219
                                                         1.878860       7.160293
                                                         1.043811       0.000000
                                                         0.579895       0.000000
                                                         0.322164       0.000000
                                                         0.178980       0.000000
                          1       8    3py               3.381949     -13.421219
                                                         1.878860       7.160293
                                                         1.043811       0.000000
                                                         0.579895       0.000000
                                                         0.322164       0.000000
                                                         0.178980       0.000000
                          1       8    3pz               3.381949     -13.421219
                                                         1.878860       7.160293
                                                         1.043811       0.000000
                                                         0.579895       0.000000
                                                         0.322164       0.000000
                                                         0.178980       0.000000

                          1       9    4px               3.381949      16.969875
                                                         1.878860     -17.063359
                                                         1.043811       5.199506
                                                         0.579895       0.000000
                                                         0.322164       0.000000
                                                         0.178980       0.000000
                          1       9    4py               3.381949      16.969875
                                                         1.878860     -17.063359
                                                         1.043811       5.199506
                                                         0.579895       0.000000
                                                         0.322164       0.000000
                                                         0.178980       0.000000
                          1       9    4pz               3.381949      16.969875
                                                         1.878860     -17.063359
                                                         1.043811       5.199506
                                                         0.579895       0.000000
                                                         0.322164       0.000000
                                                         0.178980       0.000000

                          1      10    5px               3.381949     -16.667809
                                                         1.878860      22.696658
                                                         1.043811     -13.047861
                                                         0.579895       3.098650
                                                         0.322164       0.000000
                                                         0.178980       0.000000
                          1      10    5py               3.381949     -16.667809
                                                         1.878860      22.696658
                                                         1.043811     -13.047861
                                                         0.579895       3.098650
                                                         0.322164       0.000000
                                                         0.178980       0.000000
                          1      10    5pz               3.381949     -16.667809
                                                         1.878860      22.696658
                                                         1.043811     -13.047861
                                                         0.579895       3.098650
                                                         0.322164       0.000000
                                                         0.178980       0.000000

                          1      11    6px               3.381949      14.245403
                                                         1.878860     -22.763562
                                                         1.043811      17.728616
                                                         0.579895      -7.950208
                                                         0.322164       1.666493
                                                         0.178980       0.000000
                          1      11    6py               3.381949      14.245403
                                                         1.878860     -22.763562
                                                         1.043811      17.728616
                                                         0.579895      -7.950208
                                                         0.322164       1.666493
                                                         0.178980       0.000000
                          1      11    6pz               3.381949      14.245403
                                                         1.878860     -22.763562
                                                         1.043811      17.728616
                                                         0.579895      -7.950208
                                                         0.322164       1.666493
                                                         0.178980       0.000000

                          1      12    7px               3.381949     -11.279874
                                                         1.878860      19.637060
                                                         1.043811     -17.948085
                                                         0.579895      10.908166
                                                         0.322164      -4.320501
                                                         0.178980       0.849040
                          1      12    7py               3.381949     -11.279874
                                                         1.878860      19.637060
                                                         1.043811     -17.948085
                                                         0.579895      10.908166
                                                         0.322164      -4.320501
                                                         0.178980       0.849040
                          1      12    7pz               3.381949     -11.279874
                                                         1.878860      19.637060
                                                         1.043811     -17.948085
                                                         0.579895      10.908166
                                                         0.322164      -4.320501
                                                         0.178980       0.849040

                          1      13    3dx2              3.381949      13.881991
                                                         1.878860       0.000000
                                                         1.043811       0.000000
                                                         0.579895       0.000000
                                                         0.322164       0.000000
                                                         0.178980       0.000000
                          1      13    3dxy              3.381949      24.044314
                                                         1.878860       0.000000
                                                         1.043811       0.000000
                                                         0.579895       0.000000
                                                         0.322164       0.000000
                                                         0.178980       0.000000
                          1      13    3dxz              3.381949      24.044314
                                                         1.878860       0.000000
                                                         1.043811       0.000000
                                                         0.579895       0.000000
                                                         0.322164       0.000000
                                                         0.178980       0.000000
                          1      13    3dy2              3.381949      13.881991
                                                         1.878860       0.000000
                                                         1.043811       0.000000
                                                         0.579895       0.000000
                                                         0.322164       0.000000
                                                         0.178980       0.000000
                          1      13    3dyz              3.381949      24.044314
                                                         1.878860       0.000000
                                                         1.043811       0.000000
                                                         0.579895       0.000000
                                                         0.322164       0.000000
                                                         0.178980       0.000000
                          1      13    3dz2              3.381949      13.881991
                                                         1.878860       0.000000
                                                         1.043811       0.000000
                                                         0.579895       0.000000
                                                         0.322164       0.000000
                                                         0.178980       0.000000

                          1      14    4dx2              3.381949     -23.558178
                                                         1.878860       9.775434
                                                         1.043811       0.000000
                                                         0.579895       0.000000
                                                         0.322164       0.000000
                                                         0.178980       0.000000
                          1      14    4dxy              3.381949     -40.803962
                                                         1.878860      16.931549
                                                         1.043811       0.000000
                                                         0.579895       0.000000
                                                         0.322164       0.000000
                                                         0.178980       0.000000
                          1      14    4dxz              3.381949     -40.803962
                                                         1.878860      16.931549
                                                         1.043811       0.000000
                                                         0.579895       0.000000
                                                         0.322164       0.000000
                                                         0.178980       0.000000
                          1      14    4dy2              3.381949     -23.558178
                                                         1.878860       9.775434
                                                         1.043811       0.000000
                                                         0.579895       0.000000
                                                         0.322164       0.000000
                                                         0.178980       0.000000
                          1      14    4dyz              3.381949     -40.803962
                                                         1.878860      16.931549
                                                         1.043811       0.000000
                                                         0.579895       0.000000
                                                         0.322164       0.000000
                                                         0.178980       0.000000
                          1      14    4dz2              3.381949     -23.558178
                                                         1.878860       9.775434
                                                         1.043811       0.000000
                                                         0.579895       0.000000
                                                         0.322164       0.000000
                                                         0.178980       0.000000

                          1      15    5dx2              3.381949      26.186024
                                                         1.878860     -19.726332
                                                         1.043811       4.838723
                                                         0.579895       0.000000
                                                         0.322164       0.000000
                                                         0.178980       0.000000
                          1      15    5dxy              3.381949      45.355523
                                                         1.878860     -34.167010
                                                         1.043811       8.380914
                                                         0.579895       0.000000
                                                         0.322164       0.000000
                                                         0.178980       0.000000
                          1      15    5dxz              3.381949      45.355523
                                                         1.878860     -34.167010
                                                         1.043811       8.380914
                                                         0.579895       0.000000
                                                         0.322164       0.000000
                                                         0.178980       0.000000
                          1      15    5dy2              3.381949      26.186024
                                                         1.878860     -19.726332
                                                         1.043811       4.838723
                                                         0.579895       0.000000
                                                         0.322164       0.000000
                                                         0.178980       0.000000
                          1      15    5dyz              3.381949      45.355523
                                                         1.878860     -34.167010
                                                         1.043811       8.380914
                                                         0.579895       0.000000
                                                         0.322164       0.000000
                                                         0.178980       0.000000
                          1      15    5dz2              3.381949      26.186024
                                                         1.878860     -19.726332
                                                         1.043811       4.838723
                                                         0.579895       0.000000
                                                         0.322164       0.000000
                                                         0.178980       0.000000

                          1      16    6dx2              3.381949     -23.532947
                                                         1.878860      23.283831
                                                         1.043811     -10.383618
                                                         0.579895       2.036764
                                                         0.322164       0.000000
                                                         0.178980       0.000000
                          1      16    6dxy              3.381949     -40.760260
                                                         1.878860      40.328778
                                                         1.043811     -17.984954
                                                         0.579895       3.527778
                                                         0.322164       0.000000
                                                         0.178980       0.000000
                          1      16    6dxz              3.381949     -40.760260
                                                         1.878860      40.328778
                                                         1.043811     -17.984954
                                                         0.579895       3.527778
                                                         0.322164       0.000000
                                                         0.178980       0.000000
                          1      16    6dy2              3.381949     -23.532947
                                                         1.878860      23.283831
                                                         1.043811     -10.383618
                                                         0.579895       2.036764
                                                         0.322164       0.000000
                                                         0.178980       0.000000
                          1      16    6dyz              3.381949     -40.760260
                                                         1.878860      40.328778
                                                         1.043811     -17.984954
                                                         0.579895       3.527778
                                                         0.322164       0.000000
                                                         0.178980       0.000000
                          1      16    6dz2              3.381949     -23.532947
                                                         1.878860      23.283831
                                                         1.043811     -10.383618
                                                         0.579895       2.036764
                                                         0.322164       0.000000
                                                         0.178980       0.000000

                          1      17    7dx2              3.381949      18.889352
                                                         1.878860     -21.444636
                                                         1.043811      12.567515
                                                         0.579895      -4.487236
                                                         0.322164       0.790810
                                                         0.178980       0.000000
                          1      17    7dxy              3.381949      32.717318
                                                         1.878860     -37.143199
                                                         1.043811      21.767574
                                                         0.579895      -7.772121
                                                         0.322164       1.369724
                                                         0.178980       0.000000
                          1      17    7dxz              3.381949      32.717318
                                                         1.878860     -37.143199
                                                         1.043811      21.767574
                                                         0.579895      -7.772121
                                                         0.322164       1.369724
                                                         0.178980       0.000000
                          1      17    7dy2              3.381949      18.889352
                                                         1.878860     -21.444636
                                                         1.043811      12.567515
                                                         0.579895      -4.487236
                                                         0.322164       0.790810
                                                         0.178980       0.000000
                          1      17    7dyz              3.381949      32.717318
                                                         1.878860     -37.143199
                                                         1.043811      21.767574
                                                         0.579895      -7.772121
                                                         0.322164       1.369724
                                                         0.178980       0.000000
                          1      17    7dz2              3.381949      18.889352
                                                         1.878860     -21.444636
                                                         1.043811      12.567515
                                                         0.579895      -4.487236
                                                         0.322164       0.790810
                                                         0.178980       0.000000

                          1      18    8dx2              3.381949     -14.281687
                                                         1.878860      17.397534
                                                         1.043811     -11.700224
                                                         0.579895       5.492725
                                                         0.322164      -1.763529
                                                         0.178980       0.294757
                          1      18    8dxy              3.381949     -24.736607
                                                         1.878860      30.133412
                                                         1.043811     -20.265382
                                                         0.579895       9.513680
                                                         0.322164      -3.054522
                                                         0.178980       0.510533
                          1      18    8dxz              3.381949     -24.736607
                                                         1.878860      30.133412
                                                         1.043811     -20.265382
                                                         0.579895       9.513680
                                                         0.322164      -3.054522
                                                         0.178980       0.510533
                          1      18    8dy2              3.381949     -14.281687
                                                         1.878860      17.397534
                                                         1.043811     -11.700224
                                                         0.579895       5.492725
                                                         0.322164      -1.763529
                                                         0.178980       0.294757
                          1      18    8dyz              3.381949     -24.736607
                                                         1.878860      30.133412
                                                         1.043811     -20.265382
                                                         0.579895       9.513680
                                                         0.322164      -3.054522
                                                         0.178980       0.510533
                          1      18    8dz2              3.381949     -14.281687
                                                         1.878860      17.397534
                                                         1.043811     -11.700224
                                                         0.579895       5.492725
                                                         0.322164      -1.763529
                                                         0.178980       0.294757

                          2       1    4fx3              0.539490       0.367212
                          2       1    4fx2y             0.539490       0.821111
                          2       1    4fx2z             0.539490       0.821111
                          2       1    4fxy2             0.539490       0.821111
                          2       1    4fxyz             0.539490       1.422207
                          2       1    4fxz2             0.539490       0.821111
                          2       1    4fy3              0.539490       0.367212
                          2       1    4fy2z             0.539490       0.821111
                          2       1    4fyz2             0.539490       0.821111
                          2       1    4fz3              0.539490       0.367212

       Atomic covalent radius [Angstrom]:                                  1.110

       Atomic van der Waals radius [Angstrom]:                             2.100

     GTH Potential information for                                    GTH-PBE-q4

       Description:                       Goedecker-Teter-Hutter pseudopotential
                                           Goedecker et al., PRB 54, 1703 (1996)
                                          Hartwigsen et al., PRB 58, 3641 (1998)
                                                      Krack, TCA 114, 145 (2005)

       Gaussian exponent of the core charge distribution:               2.582645
       Electronic configuration (s p d ...):                               2   2

       Parameters of the local part of the GTH pseudopotential:

                          rloc        C1          C2          C3          C4
                        0.440000   -6.269288

       Parameters of the non-local part of the GTH pseudopotential:

                   l      r(l)      h(i,j,l)

                   0    0.435634    8.951742   -2.706271
                                   -2.706271    3.493781
                   1    0.497942    2.431277


 MOLECULE KIND INFORMATION


 All atoms are their own molecule, skipping detailed information


 TOTAL NUMBERS AND MAXIMUM NUMBERS

  Total number of            - Atomic kinds:                                   1
                             - Atoms:                                         32
                             - Shell sets:                                    32
                             - Shells:                                       160
                             - Primitive Cartesian functions:                128
                             - Cartesian basis functions:                    448
                             - Spherical basis functions:                    416

  Maximum angular momentum of- Orbital basis functions:                        2
                             - Local part of the GTH pseudopotential:          0
                             - Non-local part of the GTH pseudopotential:      2

  AUX_FIT ADMM-Basis: 
  Total number of            - Shell sets:                                   160
                             - Shells:                                       160
                             - Primitive Cartesian functions:                224
                             - Cartesian basis functions:                    448
                             - Spherical basis functions:                    416
                               Maximum angular momentum                        2


 MODULE QUICKSTEP: ATOMIC COORDINATES IN ANGSTROM

   Atom Kind Element         X             Y             Z       Z(eff)     Mass
      1    1 Si   14      0.000000      0.000000      0.000000   4.0000  28.0855
      2    1 Si   14      0.000000      2.715500      2.715500   4.0000  28.0855
      3    1 Si   14      2.715500      0.000000      2.715500   4.0000  28.0855
      4    1 Si   14      2.715500      2.715500      0.000000   4.0000  28.0855
      5    1 Si   14      1.357750      1.357750      1.357750   4.0000  28.0855
      6    1 Si   14      1.357750      4.073250      4.073250   4.0000  28.0855
      7    1 Si   14      4.073250      1.357750      4.073250   4.0000  28.0855
      8    1 Si   14      4.073250      4.073250      1.357750   4.0000  28.0855
      9    1 Si   14      0.000000      5.431000      0.000000   4.0000  28.0855
     10    1 Si   14      0.000000      8.146500      2.715500   4.0000  28.0855
     11    1 Si   14      2.715500      5.431000      2.715500   4.0000  28.0855
     12    1 Si   14      2.715500      8.146500      0.000000   4.0000  28.0855
     13    1 Si   14      1.357750      6.788750      1.357750   4.0000  28.0855
     14    1 Si   14      1.357750      9.504250      4.073250   4.0000  28.0855
     15    1 Si   14      4.073250      6.788750      4.073250   4.0000  28.0855
     16    1 Si   14      4.073250      9.504250      1.357750   4.0000  28.0855
     17    1 Si   14      5.431000      0.000000      0.000000   4.0000  28.0855
     18    1 Si   14      5.431000      2.715500      2.715500   4.0000  28.0855
     19    1 Si   14      8.146500      0.000000      2.715500   4.0000  28.0855
     20    1 Si   14      8.146500      2.715500      0.000000   4.0000  28.0855
     21    1 Si   14      6.788750      1.357750      1.357750   4.0000  28.0855
     22    1 Si   14      6.788750      4.073250      4.073250   4.0000  28.0855
     23    1 Si   14      9.504250      1.357750      4.073250   4.0000  28.0855
     24    1 Si   14      9.504250      4.073250      1.357750   4.0000  28.0855
     25    1 Si   14      5.431000      5.431000      0.000000   4.0000  28.0855
     26    1 Si   14      5.431000      8.146500      2.715500   4.0000  28.0855
     27    1 Si   14      8.146500      5.431000      2.715500   4.0000  28.0855
     28    1 Si   14      8.146500      8.146500      0.000000   4.0000  28.0855
     29    1 Si   14      6.788750      6.788750      1.357750   4.0000  28.0855
     30    1 Si   14      6.788750      9.504250      4.073250   4.0000  28.0855
     31    1 Si   14      9.504250      6.788750      4.073250   4.0000  28.0855
     32    1 Si   14      9.504250      9.504250      1.357750   4.0000  28.0855



 SCF PARAMETERS         Density guess:                                    ATOMIC
                        --------------------------------------------------------
                        max_scf:                                              50
                        max_scf_history:                                       0
                        max_diis:                                              4
                        --------------------------------------------------------
                        eps_scf:                                        1.00E-06
                        eps_scf_history:                                0.00E+00
                        eps_diis:                                       1.00E-01
                        eps_eigval:                                     1.00E-05
                        --------------------------------------------------------
                        level_shift [a.u.]:                             0.000000
                        --------------------------------------------------------
                        Outer loop SCF in use 
                        No variables optimised in outer loop
                        eps_scf                                         1.00E-06
                        max_scf                                               50
                        No outer loop optimization
                        step_size                                       5.00E-01

 PW_GRID| Information for grid number                                          1
 PW_GRID| Grid distributed over                                    32 processors
 PW_GRID| Real space group dimensions                                    32    1
 PW_GRID| the grid is blocked:                                                NO
 PW_GRID| Cutoff [a.u.]                                                    300.0
 PW_GRID| spherical cutoff:                                                   NO
 PW_GRID|   Bounds   1            -81      80                Points:         162
 PW_GRID|   Bounds   2            -81      80                Points:         162
 PW_GRID|   Bounds   3            -40      40                Points:          81
 PW_GRID| Volume element (a.u.^3)  0.2034E-02     Volume (a.u.^3)      4324.1028
 PW_GRID| Grid span                                                    FULLSPACE
 PW_GRID|   Distribution                         Average         Max         Min
 PW_GRID|   G-Vectors                            66430.1       66582       66420
 PW_GRID|   G-Rays                                 410.1         411         410
 PW_GRID|   Real Space Points                    66430.1       78732       65610

 PW_GRID| Information for grid number                                          2
 PW_GRID| Number of the reference grid                                         1
 PW_GRID| Grid distributed over                                    32 processors
 PW_GRID| Real space group dimensions                                    32    1
 PW_GRID| the grid is blocked:                                                NO
 PW_GRID| Cutoff [a.u.]                                                    100.0
 PW_GRID| spherical cutoff:                                                   NO
 PW_GRID|   Bounds   1            -48      47                Points:          96
 PW_GRID|   Bounds   2            -48      47                Points:          96
 PW_GRID|   Bounds   3            -24      23                Points:          48
 PW_GRID| Volume element (a.u.^3)  0.9775E-02     Volume (a.u.^3)      4324.1028
 PW_GRID| Grid span                                                    FULLSPACE
 PW_GRID|   Distribution                         Average         Max         Min
 PW_GRID|   G-Vectors                            13824.0       14112       13536
 PW_GRID|   G-Rays                                 144.0         147         141
 PW_GRID|   Real Space Points                    13824.0       13824       13824

 PW_GRID| Information for grid number                                          3
 PW_GRID| Number of the reference grid                                         1
 PW_GRID| Grid distributed over                                    32 processors
 PW_GRID| Real space group dimensions                                    32    1
 PW_GRID| the grid is blocked:                                                NO
 PW_GRID| Cutoff [a.u.]                                                     33.3
 PW_GRID| spherical cutoff:                                                   NO
 PW_GRID|   Bounds   1            -27      26                Points:          54
 PW_GRID|   Bounds   2            -27      26                Points:          54
 PW_GRID|   Bounds   3            -13      13                Points:          27
 PW_GRID| Volume element (a.u.^3)  0.5492E-01     Volume (a.u.^3)      4324.1028
 PW_GRID| Grid span                                                    FULLSPACE
 PW_GRID|   Distribution                         Average         Max         Min
 PW_GRID|   G-Vectors                             2460.4        2916        2106
 PW_GRID|   G-Rays                                  45.6          54          39
 PW_GRID|   Real Space Points                     2460.4        2916        1458

 PW_GRID| Information for grid number                                          4
 PW_GRID| Number of the reference grid                                         1
 PW_GRID| Grid distributed over                                    32 processors
 PW_GRID| Real space group dimensions                                    32    1
 PW_GRID| the grid is blocked:                                                NO
 PW_GRID| Cutoff [a.u.]                                                     11.1
 PW_GRID| spherical cutoff:                                                   NO
 PW_GRID|   Bounds   1            -16      15                Points:          32
 PW_GRID|   Bounds   2            -16      15                Points:          32
 PW_GRID|   Bounds   3             -7       7                Points:          15
 PW_GRID| Volume element (a.u.^3)  0.2815         Volume (a.u.^3)      4324.1028
 PW_GRID| Grid span                                                    FULLSPACE
 PW_GRID|   Distribution                         Average         Max         Min
 PW_GRID|   G-Vectors                              480.0         608         352
 PW_GRID|   G-Rays                                  15.0          19          11
 PW_GRID|   Real Space Points                      480.0         480         480

 POISSON| Solver                                                        PERIODIC
 POISSON| Periodicity                                                        XYZ

 RS_GRID| Information for grid number                                          1
 RS_GRID|   Bounds   1            -81      80                Points:         162
 RS_GRID|   Bounds   2            -81      80                Points:         162
 RS_GRID|   Bounds   3            -40      40                Points:          81
 RS_GRID| Real space distribution over                                  4 groups
 RS_GRID| Real space distribution along direction                              1
 RS_GRID| Border size                                                         29
 RS_GRID| Real space distribution over                                  8 groups
 RS_GRID| Real space distribution along direction                              2
 RS_GRID| Border size                                                         29
 RS_GRID|   Distribution                         Average         Max         Min
 RS_GRID|   Planes                                  98.5          99          98
 RS_GRID|   Distribution                         Average         Max         Min
 RS_GRID|   Planes                                  78.2          79          78

 RS_GRID| Information for grid number                                          2
 RS_GRID|   Bounds   1            -48      47                Points:          96
 RS_GRID|   Bounds   2            -48      47                Points:          96
 RS_GRID|   Bounds   3            -24      23                Points:          48
 RS_GRID| Real space fully replicated
 RS_GRID| Group size                                                           1

 RS_GRID| Information for grid number                                          3
 RS_GRID|   Bounds   1            -27      26                Points:          54
 RS_GRID|   Bounds   2            -27      26                Points:          54
 RS_GRID|   Bounds   3            -13      13                Points:          27
 RS_GRID| Real space fully replicated
 RS_GRID| Group size                                                           1

 RS_GRID| Information for grid number                                          4
 RS_GRID|   Bounds   1            -16      15                Points:          32
 RS_GRID|   Bounds   2            -16      15                Points:          32
 RS_GRID|   Bounds   3             -7       7                Points:          15
 RS_GRID| Real space fully replicated
 RS_GRID| Group size                                                           1

 *** WARNING in hfx_types.F:2091 :: Periodic Hartree Fock calculation   ***
 *** requested with the use of a truncated or shortrange potential. The ***
 *** cutoff radius is larger than half the minimal cell dimension. This ***
 *** may lead to unphysical total energies. Reduce the cutoff radius in ***
 *** order to avoid possible problems.                                  ***


  HFX_INFO| Replica ID:                                                        1
  HFX_INFO| FRACTION:                                               0.2500000000
  HFX_INFO| Interaction Potential:                                    SHORTRANGE
  HFX_INFO| Omega:                                                  0.1100000000
  HFX_INFO| Cutoff Radius [angstrom]:                              20.0467199179
  HFX_RI_INFO| RI metric:                                             SHORTRANGE
  HFX_RI_INFO| Omega:                                               0.1100000000
  HFX_RI_INFO| Cutoff Radius [angstrom]:                           20.0467199179
  HFX_RI_INFO| RI flavor:                                                    RHO
  HFX_RI_INFO| EPS_FILTER                                                1.0E-09
  HFX_RI_INFO| EPS_FILTER 2-center                                       1.0E-12
  HFX_RI_INFO| EPS_FILTER storage                                        1.0E-11
  HFX_RI_INFO| EPS_FILTER MO                                             1.0E-12
  HFX_RI_INFO| EPS_PGF_ORB                                               1.0E-06
  HFX_RI_INFO| EPS_SCHWARZ:                                              1.0E-10
  HFX_RI_INFO| EPS_SCHWARZ_FORCES:                                       1.0E-08
  HFX_RI_INFO| Minimum block size                                              4
  HFX_RI_INFO| MO block size                                                  64
  HFX_RI_INFO| Memory reduction factor                                         3

 Number of electrons:                                                        128
 Number of occupied orbitals:                                                 64
 Number of molecular orbitals:                                                64

 Number of orbital functions:                                                416
 Number of independent orbital functions:                                    416

 Extrapolation method: initial_guess

 Atomic guess: The first density matrix is obtained in terms of atomic orbitals
               and electronic configurations assigned to each atomic kind

 Guess for atomic kind: Si

 Electronic structure
    Total number of core electrons                                         10.00
    Total number of valence electrons                                       4.00
    Total number of electrons                                              14.00
    Multiplicity                                                   not specified
    S   [  2.00  2.00] 2.00
    P   [  6.00] 2.00
 

 *******************************************************************************
                  Iteration          Convergence                     Energy [au]
 *******************************************************************************
                          1        0.526541E-01                  -3.659692963728
                          2        0.125823E-01                  -3.661785675622
                          3        0.408986E-04                  -3.661911567360
                          4        0.675570E-07                  -3.661911568709

 Energy components [Hartree]           Total Energy ::           -3.661911568709
                                        Band Energy ::           -0.941881516273
                                     Kinetic Energy ::            1.409736465412
                                   Potential Energy ::           -5.071648034121
                                      Virial (-V/T) ::            3.597585902439
                                        Core Energy ::           -5.690149137281
                                          XC Energy ::           -0.992569238249
                                     Coulomb Energy ::            3.020806806821
                       Total Pseudopotential Energy ::           -7.143143335066
                       Local Pseudopotential Energy ::           -8.006124475851
                    Nonlocal Pseudopotential Energy ::            0.862981140786
                                        Confinement ::            0.432577323720

 Orbital energies  State     L     Occupation   Energy[a.u.]          Energy[eV]

                       1     0          2.000      -0.357276           -9.721984
 
                       1     1          2.000      -0.113664           -3.092965
 

 Total Electron Density at R=0:                                         0.000026
 Re-scaling the density matrix to get the right number of electrons
                  # Electrons              Trace(P)               Scaling factor
                          128               127.214                        1.006


 SCF WAVEFUNCTION OPTIMIZATION

  ----------------------------------- OT ---------------------------------------
  Minimizer      : DIIS                : direct inversion
                                         in the iterative subspace
                                         using   7 DIIS vectors
                                         safer DIIS on
  Preconditioner : FULL_SINGLE_INVERSE : inversion of 
                                         H + eS - 2*(Sc)(c^T*H*c+const)(Sc)^T
  Precond_solver : DEFAULT
  stepsize       :    0.08000000                  energy_gap     :    0.05000000
  eps_taylor     :   0.10000E-15                  max_taylor     :             4
  ----------------------------------- OT ---------------------------------------

  Step     Update method      Time    Convergence         Total energy    Change
  ------------------------------------------------------------------------------
  MEMORY_INFO| Memory for 3-center HFX integrals (compressed):        995.16 MiB
  MEMORY_INFO| Compression factor:                                          2.62
     Occupancy of density matrix P:                           1.7E+05 / 100.000%
     Occupancy of 3c ints:                                    3.2E+08 /  93.531%
     Occupancy after contraction with K:                      3.3E+08 /  96.653%
     Occupancy after contraction with P:                      3.4E+08 / 100.000%
     Occupancy of Kohn-Sham matrix:                           1.7E+05 / 100.000%
     1 OT DIIS     0.80E-01   88.4     0.03878256      -120.3200424623 -1.20E+02
     2 OT DIIS     0.80E-01    3.7     0.04123160      -122.3035474634 -1.98E+00
     3 OT DIIS     0.80E-01    3.7     0.02609076      -123.3856095211 -1.08E+00
     4 OT DIIS     0.80E-01    3.7     0.01740915      -124.9250260511 -1.54E+00
     5 OT DIIS     0.80E-01    3.7     0.01050805      -125.5538969298 -6.29E-01
     6 OT DIIS     0.80E-01    3.7     0.00670041      -125.8406559718 -2.87E-01
     7 OT DIIS     0.80E-01    3.7     0.00454491      -125.9541284876 -1.13E-01
     8 OT DIIS     0.80E-01    3.7     0.00352401      -126.0124970008 -5.84E-02
     9 OT DIIS     0.80E-01    3.7     0.00266484      -126.0584223071 -4.59E-02
    10 OT DIIS     0.80E-01    3.7     0.00218721      -126.0913586374 -3.29E-02
    11 OT DIIS     0.80E-01    3.7     0.00178251      -126.1140983168 -2.27E-02
    12 OT DIIS     0.80E-01    3.7     0.00152809      -126.1314601606 -1.74E-02
    13 OT DIIS     0.80E-01    3.7     0.00130093      -126.1468275109 -1.54E-02
    14 OT DIIS     0.80E-01    3.7     0.00114910      -126.1592953283 -1.25E-02
    15 OT DIIS     0.80E-01    3.7     0.00107803      -126.1680567140 -8.76E-03
    16 OT DIIS     0.80E-01    3.7     0.00105394      -126.1739460663 -5.89E-03
    17 OT SD       0.80E-01    3.7     0.00105980      -126.1771683042 -3.22E-03
    18 OT SD       0.80E-01    3.7     0.00106801      -126.1795674760 -2.40E-03
    19 OT SD       0.80E-01    3.7     0.00108033      -126.1820096603 -2.44E-03
    20 OT SD       0.80E-01    3.7     0.00109495      -126.1845115309 -2.50E-03
    21 OT SD       0.80E-01    3.7     0.00111080      -126.1870830763 -2.57E-03
    22 OT SD       0.80E-01    3.7     0.00112706      -126.1897300432 -2.65E-03
    23 OT DIIS     0.80E-01    3.7     0.00114306      -126.1924546623 -2.72E-03
    24 OT SD       0.80E-01    3.7     0.00174715      -126.1892244264  3.23E-03
    25 OT SD       0.80E-01    3.7     0.00153354      -126.1949898527 -5.77E-03
    26 OT SD       0.80E-01    3.7     0.00143923      -126.1997375810 -4.75E-03
    27 OT SD       0.80E-01    3.7     0.00138786      -126.2040320333 -4.29E-03
    28 OT SD       0.80E-01    3.7     0.00135497      -126.2080716994 -4.04E-03
    29 OT SD       0.80E-01    3.7     0.00132958      -126.2119397308 -3.87E-03
    30 OT DIIS     0.80E-01    3.7     0.00130669      -126.2156702600 -3.73E-03
    31 OT SD       0.80E-01    3.7     0.00084688      -126.2648820060 -4.92E-02
    32 OT DIIS     0.80E-01    3.7     0.00070734      -126.2662391964 -1.36E-03
    33 OT DIIS     0.80E-01    3.7     0.00141499      -126.2591876755  7.05E-03
    34 OT SD       0.80E-01    3.7     0.00132565      -126.2607127376 -1.53E-03
    35 OT DIIS     0.80E-01    3.7     0.00094611      -126.2638534641 -3.14E-03
    36 OT DIIS     0.80E-01    3.7     0.00050646      -126.2721681699 -8.31E-03
    37 OT DIIS     0.80E-01    3.8     0.00047582      -126.2764452497 -4.28E-03
    38 OT DIIS     0.80E-01    3.7     0.00030385      -126.2770955239 -6.50E-04
    39 OT DIIS     0.80E-01    3.7     0.00024961      -126.2780461710 -9.51E-04
    40 OT DIIS     0.80E-01    3.7     0.00021400      -126.2786457627 -6.00E-04
    41 OT DIIS     0.80E-01    3.7     0.00021550      -126.2787989234 -1.53E-04
    42 OT DIIS     0.80E-01    3.6     0.00018228      -126.2790420175 -2.43E-04
    43 OT DIIS     0.80E-01    3.7     0.00016049      -126.2795496389 -5.08E-04
    44 OT DIIS     0.80E-01    3.6     0.00014003      -126.2798282378 -2.79E-04
    45 OT DIIS     0.80E-01    3.7     0.00012860      -126.2800429400 -2.15E-04
    46 OT DIIS     0.80E-01    3.7     0.00011268      -126.2803102798 -2.67E-04
    47 OT DIIS     0.80E-01    3.7     0.00009945      -126.2804983601 -1.88E-04
    48 OT DIIS     0.80E-01    3.7     0.00008825      -126.2806585376 -1.60E-04
    49 OT DIIS     0.80E-01    3.7     0.00008327      -126.2807293939 -7.09E-05
    50 OT DIIS     0.80E-01    3.7     0.00007717      -126.2808189970 -8.96E-05

  Leaving inner SCF loop after reaching    50 steps.


  Electronic density on regular grids:       -128.0000000000        0.0000000000
  Core density on regular grids:              127.9999999998       -0.0000000002
  Total charge density on r-space grids:       -0.0000000002
  Total charge density g-space grids:          -0.0000000002

  Overlap energy of the core charge distribution:               0.00000000021215
  Self energy of the core charge distribution:               -328.25575770051279
  Core Hamiltonian energy:                                     69.53485476792022
  Hartree energy:                                             171.55680290210341
  Exchange-correlation energy:                                -32.05934548697558
  Hartree-Fock Exchange energy:                                -7.05737347970843

  Total energy:                                              -126.28081899696106

  outer SCF iter =    1 RMS gradient =   0.77E-04 energy =       -126.2808189970

  ----------------------------------- OT ---------------------------------------
  Minimizer      : DIIS                : direct inversion
                                         in the iterative subspace
                                         using   7 DIIS vectors
                                         safer DIIS on
  Preconditioner : FULL_SINGLE_INVERSE : inversion of 
                                         H + eS - 2*(Sc)(c^T*H*c+const)(Sc)^T
  Precond_solver : DEFAULT
  stepsize       :    0.08000000                  energy_gap     :    0.05000000
  eps_taylor     :   0.10000E-15                  max_taylor     :             4
  ----------------------------------- OT ---------------------------------------

  Step     Update method      Time    Convergence         Total energy    Change
  ------------------------------------------------------------------------------
     1 OT DIIS     0.80E-01    7.4     0.00038293      -126.2808834235 -6.44E-05
     2 OT DIIS     0.80E-01    3.6     0.00031945      -126.2811688945 -2.85E-04
     3 OT DIIS     0.80E-01    3.7     0.00015286      -126.2817987388 -6.30E-04
     4 OT DIIS     0.80E-01    3.7     0.00012003      -126.2819004635 -1.02E-04
     5 OT DIIS     0.80E-01    3.7     0.00008225      -126.2819941863 -9.37E-05
     6 OT DIIS     0.80E-01    3.7     0.00005365      -126.2820479682 -5.38E-05
     7 OT DIIS     0.80E-01    3.7     0.00003606      -126.2820702115 -2.22E-05
     8 OT DIIS     0.80E-01    3.6     0.00002244      -126.2820808924 -1.07E-05
     9 OT DIIS     0.80E-01    3.7     0.00001335      -126.2820846910 -3.80E-06
    10 OT DIIS     0.80E-01    3.6     0.00000831      -126.2820859403 -1.25E-06
    11 OT DIIS     0.80E-01    3.6     0.00000615      -126.2820862758 -3.36E-07
    12 OT DIIS     0.80E-01    3.6     0.00000423      -126.2820865039 -2.28E-07
    13 OT DIIS     0.80E-01    3.6     0.00000306      -126.2820866104 -1.06E-07
    14 OT DIIS     0.80E-01    3.6     0.00000226      -126.2820866665 -5.62E-08
    15 OT DIIS     0.80E-01    3.6     0.00000170      -126.2820866957 -2.92E-08
    16 OT DIIS     0.80E-01    3.5     0.00000126      -126.2820867129 -1.72E-08
    17 OT DIIS     0.80E-01    3.6     0.00000090      -126.2820867224 -9.47E-09

  *** SCF run converged in    17 steps ***


  Electronic density on regular grids:       -128.0000000000        0.0000000000
  Core density on regular grids:              127.9999999998       -0.0000000002
  Total charge density on r-space grids:       -0.0000000002
  Total charge density g-space grids:          -0.0000000002

  Overlap energy of the core charge distribution:               0.00000000021215
  Self energy of the core charge distribution:               -328.25575770051279
  Core Hamiltonian energy:                                     69.53677788549891
  Hartree energy:                                             171.55485657896534
  Exchange-correlation energy:                                -32.06005818840152
  Hartree-Fock Exchange energy:                                -7.05790529818281

  Total energy:                                              -126.28208672242073

  outer SCF iter =    2 RMS gradient =   0.90E-06 energy =       -126.2820867224
  outer SCF loop converged in   2 iterations or   67 steps


 !-----------------------------------------------------------------------------!
                     Mulliken Population Analysis

 #  Atom  Element  Kind  Atomic population                           Net charge
       1     Si       1          4.000000                             -0.000000
       2     Si       1          3.999995                              0.000005
       3     Si       1          3.999996                              0.000004
       4     Si       1          4.000002                             -0.000002
       5     Si       1          4.000001                             -0.000001
       6     Si       1          4.000000                             -0.000000
       7     Si       1          4.000002                             -0.000002
       8     Si       1          4.000001                             -0.000001
       9     Si       1          4.000001                             -0.000001
      10     Si       1          3.999995                              0.000005
      11     Si       1          3.999997                              0.000003
      12     Si       1          4.000001                             -0.000001
      13     Si       1          4.000002                             -0.000002
      14     Si       1          3.999998                              0.000002
      15     Si       1          4.000000                             -0.000000
      16     Si       1          4.000001                             -0.000001
      17     Si       1          4.000005                             -0.000005
      18     Si       1          3.999995                              0.000005
      19     Si       1          3.999998                              0.000002
      20     Si       1          4.000003                             -0.000003
      21     Si       1          3.999999                              0.000001
      22     Si       1          3.999998                              0.000002
      23     Si       1          4.000003                             -0.000003
      24     Si       1          4.000003                             -0.000003
      25     Si       1          4.000005                             -0.000005
      26     Si       1          4.000000                              0.000000
      27     Si       1          3.999997                              0.000003
      28     Si       1          4.000006                             -0.000006
      29     Si       1          3.999996                              0.000004
      30     Si       1          3.999996                              0.000004
      31     Si       1          4.000000                             -0.000000
      32     Si       1          4.000001                             -0.000001
 # Total charge                            128.000000                  0.000000

 !-----------------------------------------------------------------------------!

 !-----------------------------------------------------------------------------!
                           Hirshfeld Charges

  #Atom  Element  Kind  Ref Charge     Population                    Net charge
      1       Si     1       4.000          4.000                        -0.000
      2       Si     1       4.000          4.000                         0.000
      3       Si     1       4.000          4.000                         0.000
      4       Si     1       4.000          4.000                        -0.000
      5       Si     1       4.000          4.000                        -0.000
      6       Si     1       4.000          4.000                         0.000
      7       Si     1       4.000          4.000                        -0.000
      8       Si     1       4.000          4.000                        -0.000
      9       Si     1       4.000          4.000                        -0.000
     10       Si     1       4.000          4.000                         0.000
     11       Si     1       4.000          4.000                         0.000
     12       Si     1       4.000          4.000                        -0.000
     13       Si     1       4.000          4.000                        -0.000
     14       Si     1       4.000          4.000                         0.000
     15       Si     1       4.000          4.000                        -0.000
     16       Si     1       4.000          4.000                        -0.000
     17       Si     1       4.000          4.000                        -0.000
     18       Si     1       4.000          4.000                         0.000
     19       Si     1       4.000          4.000                         0.000
     20       Si     1       4.000          4.000                        -0.000
     21       Si     1       4.000          4.000                         0.000
     22       Si     1       4.000          4.000                         0.000
     23       Si     1       4.000          4.000                        -0.000
     24       Si     1       4.000          4.000                        -0.000
     25       Si     1       4.000          4.000                        -0.000
     26       Si     1       4.000          4.000                         0.000
     27       Si     1       4.000          4.000                         0.000
     28       Si     1       4.000          4.000                        -0.000
     29       Si     1       4.000          4.000                         0.000
     30       Si     1       4.000          4.000                         0.000
     31       Si     1       4.000          4.000                        -0.000
     32       Si     1       4.000          4.000                        -0.000

  Total Charge                                                           -0.000
 !-----------------------------------------------------------------------------!

 ENERGY| Total FORCE_EVAL ( QS ) energy [a.u.]:             -126.282086722420729

 -------------------------------------------------------------------------------
 -                                                                             -
 -                                DBCSR STATISTICS                             -
 -                                                                             -
 -------------------------------------------------------------------------------
 COUNTER                                    TOTAL       BLAS       SMM       ACC
 flops    13 x    32 x    32             10223616       0.0%    100.0%      0.0%     
 flops    32 x    32 x    32            345505792       0.0%    100.0%      0.0%     
 flops    32 x    32 x    52            911605760       0.0%    100.0%      0.0%     
 flops   104 x    32 x    32           1128005632       0.0%    100.0%      0.0%     
 flops   104 x    32 x    52           1528430592       0.0%    100.0%      0.0%     
 flops    13 x    13 x    32           1564772352       0.0%    100.0%      0.0%     
 flops    13 x    32 x    13           3189768192       0.0%    100.0%      0.0%     
 flops inhomo. stacks                           0       0.0%      0.0%      0.0%
 flops total                         8.678312E+09       0.0%    100.0%      0.0%
 flops max/rank                      1.101362E+09       0.0%    100.0%      0.0%
 matmuls inhomo. stacks                         0       0.0%      0.0%      0.0%
 matmuls total                             463512       0.0%    100.0%      0.0%
 number of processed stacks                 41576       0.0%    100.0%      0.0%
 average stack size                                     0.0      11.1       0.0
 marketing flops                    10.160177E+09
 -------------------------------------------------------------------------------
 # multiplications                           1614
 max memory usage/rank               1.330024E+09
 # max total images/rank                        2
 # max 3D layers                                1
 # MPI messages exchanged                  671424
 MPI messages size (bytes):
  total size                         3.811172E+09
  min size                           0.000000E+00
  max size                          43.264000E+03
  average size                       5.676253E+03
 MPI breakdown and total messages size (bytes):
             size <=      128              507232                        0
       128 < size <=     8192               30368                248774656
      8192 < size <=    32768               86112               1498185728
     32768 < size <=   131072               47712               2064211968
    131072 < size <=  4194304                   0                        0
   4194304 < size <= 16777216                   0                        0
  16777216 < size                               0                        0
 -------------------------------------------------------------------------------

 *** WARNING in dbcsr_mm.F:301 :: Using a non-square number of MPI ranks ***
 *** might lead to poor performance. Used ranks: 32 Suggested: 36 64     ***

 -------------------------------------------------------------------------------
 -                                                                             -
 -                      DBCSR MESSAGE PASSING PERFORMANCE                      -
 -                                                                             -
 -------------------------------------------------------------------------------
 ROUTINE             CALLS      AVE VOLUME [Bytes]
 MP_Bcast                8                     12.
 MP_Allreduce         8976                      8.
 MP_Alltoall         11323                  11927.
 MP_ISend            49648                   4014.
 MP_IRecv            49410                   3365.
 -------------------------------------------------------------------------------

 -------------------------------------------------------------------------------
 -                                                                             -
 -                                DBM STATISTICS                               -
 -                                                                             -
 -------------------------------------------------------------------------------
    M  x    N  x    K                                          COUNT     PERCENT
    ?  x    ?  x  ???                                     1773534330      26.67%
  ???  x    ?  x    ?                                     1729308988      26.01%
   ??  x    ?  x    ?                                     1615383758      24.30%
    ?  x    ?  x   ??                                     1480010345      22.26%
    ?  x    ?  x    ?                                       15721725       0.24%
    ?  x   ??  x   ??                                        8978432       0.14%
   ??  x   ??  x   ??                                        8978432       0.14%
    ?  x   ??  x    ?                                        8462336       0.13%
   ??  x   ??  x    ?                                        8462336       0.13%
 -------------------------------------------------------------------------------

 -------------------------------------------------------------------------------
 -                                                                             -
 -                                GRID STATISTICS                              -
 -                                                                             -
 -------------------------------------------------------------------------------
 LP    KERNEL             BACKEND                              COUNT     PERCENT
 4     collocate ortho    CPU                                2695264      14.75%
 4     integrate ortho    CPU                                2656416      14.53%
 1     collocate ortho    CPU                                2628544      14.38%
 1     integrate ortho    CPU                                2628544      14.38%
 2     collocate ortho    CPU                                2026080      11.08%
 2     integrate ortho    CPU                                2026080      11.08%
 0     collocate ortho    CPU                                1168480       6.39%
 0     integrate ortho    CPU                                1168480       6.39%
 3     collocate ortho    CPU                                 638912       3.50%
 3     integrate ortho    CPU                                 638912       3.50%
 0     collocate general  CPU                                   2048       0.01%
 0     integrate general  CPU                                   1024       0.01%
 -------------------------------------------------------------------------------

 MEMORY| Estimated peak process memory [MiB]                                1269

 -------------------------------------------------------------------------------
 ----                             MULTIGRID INFO                            ----
 -------------------------------------------------------------------------------
 count for grid        1:            672          cutoff [a.u.]          300.00
 count for grid        2:          52608          cutoff [a.u.]          100.00
 count for grid        3:          70496          cutoff [a.u.]           33.33
 count for grid        4:          72352          cutoff [a.u.]           11.11
 total gridlevel count  :         196128

 RI-HFX PERFORMANCE| DBT total number of flops:                         3.51E+13
 RI-HFX PERFORMANCE| DBT total execution time:                            225.97
 RI-HFX PERFORMANCE| DBT flop rate (Gflops / MPI rank):                     4.86

 -------------------------------------------------------------------------------
 -                                                                             -
 -                         MESSAGE PASSING PERFORMANCE                         -
 -                                                                             -
 -------------------------------------------------------------------------------

 ROUTINE             CALLS      AVE VOLUME [Bytes]
 MP_Group            13615
 MP_Bcast             9649                  36582.
 MP_Allreduce        57223                     43.
 MP_Sync             15984
 MP_Alltoall          9946                 631241.
 MP_SendRecv         12555                  45920.
 MP_ISendRecv        12462                  45920.
 MP_Wait             24006
 MP_comm_split        5685
 MP_ISend           111930                 145675.
 MP_IRecv           107500                 151332.
 -------------------------------------------------------------------------------


 -------------------------------------------------------------------------------
 -                                                                             -
 -                           R E F E R E N C E S                               -
 -                                                                             -
 -------------------------------------------------------------------------------
 
 CP2K version 2024.3, the CP2K developers group (2024).
 CP2K is freely available from https://www.cp2k.org/ .
 
 A. Bussy, O. Schuett, J. Hutter.
 J. Chem. Phys. 158, 164109 (2023).
 Sparse tensor based nuclear gradients for periodic Hartree-Fock and low-scaling 
 correlated wave function methods in the CP2K software package: A massively 
 parallel and GPU accelerated implementation..
 https://doi.org/10.1063/5.0144493

 T. D. Kuehne, M. Iannuzzi, M. Del Ben, V. V. Rybkin, P. Seewald, F. Stein, T. 
 Laino, R. Z. Khaliullin, O. Schuett, F. Schiffmann, D. Golze, J. Wilhelm, S. 
 Chulkov, M. H. Bani-Hashemian, V. Weber, U. Borstnik, M. Taillefumier, A. S. 
 Jakobovits, A. Lazzaro, H. Pabst, T. Mueller, R. Schade, M. Guidon, S. 
 Andermatt, N. Holmberg, G. K. Schenter, A. Hehn, A. Bussy, F. Belleflamme, G. 
 Tabacchi, A. Gloess, M. Lass, I. Bethune, C. J. Mundy, C. Plessl, M. Watkins, 
 J. VandeVondele, M. Krack, J. Hutter.
 J. Chem. Phys. 152, 194103 (2020).
 CP2K: An electronic structure and molecular dynamics software package - 
 Quickstep: Efficient and accurate electronic structure calculations.
 https://doi.org/10.1063/5.0007045

 G. L. Stoychev, A. A. Auer, F. Neese.
 J. Chem. Theory Comput. 13, 554-562 (2017).
 Automatic Generation of Auxiliary Basis Sets.
 https://doi.org/10.1021/acs.jctc.6b01041

 O. Schuett, P. Messmer, J. Hutter, J. VandeVondele.
 Electronic Structure Calculations on Graphics Processing Units, 173-190 (2016).
 GPU-Accelerated Sparse Matrix-Matrix Multiplication for Linear Scaling Density 
 Functional Theory.
 https://doi.org/10.1002/9781118670712.ch8

 A. Heinecke, G. Henry, M. Hutchinson, H. Pabst.
 Proceedings of Intl. Supercomputing Conference, 981-991 (2016).
 LIBXSMM: Accelerating Small Matrix Multiplications by Runtime Code Generation.
 https://doi.org/10.1109/SC.2016.83

 J. Hutter, M. Iannuzzi, F. Schiffmann, J. VandeVondele.
 WIREs Comput Mol Sci. 4, 15-25 (2014).
 CP2K: atomistic simulations of condensed matter systems.
 https://doi.org/10.1002/wcms.1159

 U. Borstnik, J. VandeVondele, V. Weber, J. Hutter.
 Parallel Comput. 40, 47-58 (2014).
 Sparse matrix multiplication: The distributed block-compressed sparse row 
 library.
 https://doi.org/10.1016/j.parco.2014.03.012

 P. Merlot, R. Izsak, A. Borgo, T. Kjaergaard, T. Helgaker, S. Reine.
 J. Chem. Phys. 141, 094104 (2014).
 Charge-constrained auxiliary-density-matrix methods for the Hartree-Fock 
 exchange contribution.
 https://doi.org/10.1063/1.4894267

 A. Marek, V. Blum, R. Johanni, V. Havu, B. Lang, T. Auckenthaler, A. Heinecke, 
 H. Bungartz, H. Lederer.
 J. Phys. Condens. Matter 26, 213201 (2014).
 The ELPA library: scalable parallel eigenvalue solutions for electronic 
 structure theory and computational science.
 https://doi.org/10.1088/0953-8984/26/21/213201

 M. Guidon, J. Hutter, J. VandeVondele.
 J. Chem. Theory Comput. 6, 2348-2364 (2010).
 Auxiliary Density Matrix Methods for Hartree-Fock Exchange Calculations.
 https://doi.org/10.1021/ct1002225

 M. Guidon, J. Hutter, J. VandeVondele.
 J. Chem. Theory Comput. 5, 3010-3021 (2009).
 Robust Periodic Hartree-Fock Exchange for Large-Scale Simulations Using 
 Gaussian Basis Sets.
 https://doi.org/10.1021/ct900494g

 M. Guidon, F. Schiffmann, J. Hutter, J. VandeVondele.
 J. Chem. Phys. 128, 214104 (2008).
 Ab initio molecular dynamics using hybrid density functionals.
 https://doi.org/10.1063/1.2931945

 J. VandeVondele, J. Hutter.
 J. Chem. Phys. 127, 114105 (2007).
 Gaussian basis sets for accurate calculations on molecular systems in gas and 
 condensed phases.
 https://doi.org/10.1063/1.2770708

 J. VandeVondele, M. Krack, F. Mohamed, M. Parrinello, T. Chassaing, J. Hutter.
 Comput. Phys. Commun. 167, 103-128 (2005).
 QUICKSTEP: Fast and accurate density functional calculations using a mixed 
 Gaussian and plane waves approach.
 https://doi.org/10.1016/j.cpc.2004.12.014

 M. Krack.
 Theor. Chem. Acc. 114, 145-152 (2005).
 Pseudopotentials for H to Kr optimized for gradient-corrected 
 exchange-correlation functionals.
 https://doi.org/10.1007/s00214-005-0655-y

 M. Frigo, S. G. Johnson.
 Proc. IEEE 93, 216-231 (2005).
 The design and implementation of FFTW3.
 https://doi.org/10.1109/JPROC.2004.840301

 J. Heyd, G. E. Scuseria.
 J. Chem. Phys. 120, 7274-7280 (2004).
 Assessment and validation of a screened Coulomb hybrid density functional.
 https://doi.org/10.1063/1.1668634

 J. VandeVondele, J. Hutter.
 J. Chem. Phys. 118, 4365-4369 (2003).
 An efficient orbital transformation method for electronic structure 
 calculations.
 https://doi.org/10.1063/1.1543154

 C. Hartwigsen, S. Goedecker, J. Hutter.
 Phys. Rev. B 58, 3641-3662 (1998).
 Relativistic separable dual-space Gaussian pseudopotentials from H to Rn.
 https://doi.org/10.1103/PhysRevB.58.3641

 G. Lippert, J. Hutter, M. Parrinello.
 Mol. Phys. 92, 477-487 (1997).
 A hybrid Gaussian and plane wave density functional scheme.
 https://doi.org/10.1080/002689797170220

 S. Goedecker, M. Teter, J. Hutter.
 Phys. Rev. B 54, 1703-1710 (1996).
 Separable dual-space Gaussian pseudopotentials.
 https://doi.org/10.1103/PhysRevB.54.1703

 J. P. Perdew, K. Burke, M. Ernzerhof.
 Phys. Rev. Lett. 77, 3865-3868 (1996).
 Generalized gradient approximation made simple.
 https://doi.org/10.1103/PhysRevLett.77.3865


 -------------------------------------------------------------------------------
 -                                                                             -
 -                                T I M I N G                                  -
 -                                                                             -
 -------------------------------------------------------------------------------
 SUBROUTINE                       CALLS  ASD         SELF TIME        TOTAL TIME
                                MAXIMUM       AVERAGE  MAXIMUM  AVERAGE  MAXIMUM
 CP2K                                 1  1.0    0.024    0.040  331.941  331.944
 qs_energies                          1  2.0    0.003    0.003  331.755  331.756
 scf_env_do_scf                       1  3.0    0.000    0.001  331.515  331.515
 qs_ks_update_qs_env                 69  5.0    0.000    0.000  328.022  328.023
 rebuild_ks_matrix                   67  6.0    0.000    0.000  328.019  328.020
 qs_ks_build_kohn_sham_matrix        67  7.0    0.009    0.009  328.019  328.019
 hfx_ks_matrix                       67  8.0    0.002    0.002  310.518  310.518
 hfx_ri_update_ks                    67  9.0    0.001    0.001  310.511  310.511
 hfx_ri_update_ks_Pmat               67 10.0    9.771   10.443  310.316  310.461
 scf_env_do_scf_inner_loop           67  4.0    0.002    0.009  239.493  239.493
 dbt_total                         4655 11.5    0.033    0.034  213.169  213.172
 dbt_contract                      1215 13.0    0.183    0.541  165.859  166.465
 dbt_tas_total                     2025 14.1    2.078    2.363  123.818  123.819
 dbt_tas_multiply                  1218 14.0    0.003    0.003  123.810  123.810
 dbt_tas_dbm                       1218 16.0    0.003    0.003  103.375  103.379
 dbm_multiply                      1218 18.0   88.569   96.583   88.569   96.583
 init_scf_loop                        2  4.0    0.001    0.001   92.021   92.021
 hfx_ri_update_ks_Pmat_Px3C         603 11.0    0.002    0.002   89.986   89.986
 hfx_ri_pre_scf_Pmat                  1 11.0    0.000    0.001   84.234   84.234
 hfx_ri_pre_scf_Pmat_int              1 12.0    0.000    0.000   81.474   81.477
 hfx_ri_pre_scf_calc_tensors          1 13.0    0.002    0.003   81.206   81.233
 build_3c_integrals                   3 14.0   47.572   54.948   65.827   75.787
 hfx_ri_update_ks_Pmat_KS           603 11.0    0.004    0.005   75.426   75.426
 mp_sync                          15984 13.4   41.256   66.322   41.256   66.322
 dbt_tas_mm_3T                      604 17.0    0.002    0.002   49.452   54.630
 dbt_tas_mm_2                       604 17.0    0.002    0.003   47.455   47.456
 dbt_copy                          3305 13.3    0.026    0.027   40.751   44.205
 dbt_reshape                       2906 14.5   23.610   28.720   38.505   41.705
 dbt_crop                          2430 14.0   14.480   15.377   26.871   32.584
 dbt_tas_reserve_blocks_index      8380 16.4   13.413   17.239   23.206   30.503
 dbt_reserve_blocks_index          7163 15.4    0.276    0.345   22.192   29.309
 dbt_reserve_blocks_index_array    7024 14.4    0.021    0.026   20.932   28.151
 hfx_ri_update_ks_Pmat_copy_2       603 11.0    0.001    0.002   15.573   15.573
 abc_contract_xsmm              6915690 15.0   12.106   13.867   12.106   13.867
 dbm_reserve_blocks                9192 17.2   10.011   13.477   10.011   13.477
 convert_to_new_pgrid              3654 16.0    0.026    0.036   10.464   12.096
 dbm_copy                          2432 17.0   10.390   12.023   10.390   12.023
 mp_max_i                          2859 12.2    7.311   11.212    7.311   11.212
 mp_waitall_2                      6648 16.5    6.560    9.629    6.560    9.629
 dbt_communicate_buffer            2906 15.5    0.039    0.043    7.200    9.390
 qs_vxc_create                      134  8.0    0.002    0.002    7.393    7.393
 xc_vxc_pw_create                   134  9.0    0.069    0.076    7.391    7.391
 -------------------------------------------------------------------------------

 The number of warnings for this run is : 2
 
 -------------------------------------------------------------------------------
  **** **** ******  **  PROGRAM ENDED AT                 2026-06-28 02:08:38.863
 ***** ** ***  *** **   PROGRAM RAN ON                                      cu08
 **    ****   ******    PROGRAM RAN BY                                     rudin
 ***** **    ** ** **   PROGRAM PROCESS ID                               1280875
  **** **  *******  **  PROGRAM STOPPED IN /home/rudin/code/kylin-pbc/art/exampl
                                           e/scaling/Si32-HSE06
