top                                     
   1.00000000000000     
    11.3060801559000002    0.0000000000000000    0.0000000000000000
     0.0000000000000000   11.3060801559000002    0.0000000000000000
     0.0000000000000000    0.0000000000000000   24.6953447088999987
   Pt   C    O 
    96     1     1
Selective dynamics
Direct
  0.0010699999999986  0.9996299740000012  0.1170300019999999   F   F   F
  0.0019544048743683  0.9995482791464951  0.2781814503932694   T   T   T
  0.0004881443327420  0.9994442841669056  0.4374887592086694   T   T   T
  0.1260699930000015  0.1246299969999995  0.0360900009999980   F   F   F
  0.1265881754081875  0.1249756947781577  0.1978142247239276   T   T   T
  0.1257806586526513  0.1257268205282429  0.3589604309503329   T   T   T
  0.2510699930000015  0.9996299740000012  0.1170300019999999   F   F   F
  0.2511663130063013  0.9996176180774512  0.2787825345693236   T   T   T
  0.2510106017741762  0.9995559221747783  0.4380884133269802   T   T   T
  0.3760699930000015  0.1246299969999995  0.0360900009999980   F   F   F
  0.3757654344276204  0.1249912415881340  0.1978064735782610   T   T   T
  0.3763022479997602  0.1257318004606773  0.3589682645694410   T   T   T
  0.5010700229999969  0.9996299740000012  0.1170300019999999   F   F   F
  0.5003604885636506  0.9995416125673700  0.2781959211403162   T   T   T
  0.5016659845831057  0.9995690654573579  0.4375073908813221   T   T   T
  0.6260700229999969  0.1246299969999995  0.0360900009999980   F   F   F
  0.6262612808039236  0.1244931045467226  0.1974079513594376   T   T   T
  0.6259627510601007  0.1246391880464941  0.3581828029077485   T   T   T
  0.7510700229999969  0.9996299740000012  0.1170300019999999   F   F   F
  0.7511939667795460  0.9994998791894005  0.2778836541246292   T   T   T
  0.7510563535756631  0.9994762490055038  0.4374473501284228   T   T   T
  0.8760700229999969  0.1246299969999995  0.0360900009999980   F   F   F
  0.8760551401361525  0.1245196702084570  0.1973998789856140   T   T   T
  0.8761948249992528  0.1246269327759180  0.3581995409070586   T   T   T
  0.0010699999999986  0.2496300039999966  0.1170300019999999   F   F   F
  0.0017493536023068  0.2502274503669639  0.2783017818892688   T   T   T
  0.9994249877845007  0.2480799451902627  0.4388873432982194   T   T   T
  0.1260699930000015  0.3746300039999966  0.0360900009999980   F   F   F
  0.1264145658812197  0.3748962877434252  0.1978972642573495   T   T   T
  0.1282637174454919  0.3770882398894315  0.3624487679634711   T   T   T
  0.2510699930000015  0.2496300039999966  0.1170300019999999   F   F   F
  0.2510941223892971  0.2516613407214336  0.2796984137867966   T   T   T
  0.2508153241556244  0.2447697145201033  0.4393957501555121   T   T   T
  0.3760699930000015  0.3746300039999966  0.0360900009999980   F   F   F
  0.3758455023595673  0.3748852261415152  0.1979236629241683   T   T   T
  0.3734282791108612  0.3771123940982477  0.3624367636082795   T   T   T
  0.5010700229999969  0.2496300039999966  0.1170300019999999   F   F   F
  0.5005177074828779  0.2502388077490849  0.2783495696732317   T   T   T
  0.5023365238020574  0.2481733282886722  0.4388722002627645   T   T   T
  0.6260700229999969  0.3746300039999966  0.0360900009999980   F   F   F
  0.6257861566862530  0.3750112169102593  0.1978150350954664   T   T   T
  0.6248556249618460  0.3743723029772710  0.3590014392938556   T   T   T
  0.7510700229999969  0.2496300039999966  0.1170300019999999   F   F   F
  0.7510824743630380  0.2503306168554005  0.2782262116131875   T   T   T
  0.7509348765737869  0.2487636738593721  0.4375449448106963   T   T   T
  0.8760700229999969  0.3746300039999966  0.0360900009999980   F   F   F
  0.8764223135161160  0.3750258092702126  0.1978234818024305   T   T   T
  0.8769912523885353  0.3742130515937561  0.3589807332471651   T   T   T
  0.0010699999999986  0.4996300039999966  0.1170300019999999   F   F   F
  0.0030183712281229  0.4995322405210629  0.2796815579907133   T   T   T
  0.9958542673086015  0.4995690716682404  0.4393891375387398   T   T   T
  0.1260699930000015  0.6246299740000012  0.0360900009999980   F   F   F
  0.1263778221334420  0.6243190319028855  0.1978884865238939   T   T   T
  0.1282324390257230  0.6221912161636567  0.3624262338941335   T   T   T
  0.2510699930000015  0.4996300039999966  0.1170300019999999   F   F   F
  0.2509063061607506  0.4996074307865683  0.2797834038995219   T   T   T
  0.2509705864327429  0.4993339373523824  0.4519979675226296   T   T   T
  0.3760699930000015  0.6246299740000012  0.0360900009999980   F   F   F
  0.3757801418701234  0.6241551535694114  0.1978910607607745   T   T   T
  0.3734737135908190  0.6222467482366483  0.3623935835791769   T   T   T
  0.5010700229999969  0.4996300039999966  0.1170300019999999   F   F   F
  0.4989945857443701  0.4995677730869232  0.2797373506091461   T   T   T
  0.5055723230288436  0.4996947799017164  0.4393710364130428   T   T   T
  0.6260700229999969  0.6246299740000012  0.0360900009999980   F   F   F
  0.6257284963379846  0.6240657887128478  0.1978012539290290   T   T   T
  0.6248372272559024  0.6248657071249539  0.3589884076307683   T   T   T
  0.7510700229999969  0.4996300039999966  0.1170300019999999   F   F   F
  0.7510217537956123  0.4995385986994378  0.2788129336642058   T   T   T
  0.7507612084373463  0.4995529327273189  0.4381384017752339   T   T   T
  0.8760700229999969  0.6246299740000012  0.0360900009999980   F   F   F
  0.8763660184543909  0.6241503303504246  0.1978083939866409   T   T   T
  0.8770067442927214  0.6247603681391354  0.3589416322126553   T   T   T
  0.0010699999999986  0.7496299740000012  0.1170300019999999   F   F   F
  0.0016705108462673  0.7488817981026870  0.2782773328049686   T   T   T
  0.9993904093698518  0.7510184199240300  0.4389094973515739   T   T   T
  0.1260699930000015  0.8746299740000012  0.0360900009999980   F   F   F
  0.1265755375357429  0.8742726377382581  0.1978086938310710   T   T   T
  0.1257728486350089  0.8734490851559826  0.3589014284997916   T   T   T
  0.2510699930000015  0.7496299740000012  0.1170300019999999   F   F   F
  0.2510612571684305  0.7475964533053698  0.2796579488162720   T   T   T
  0.2508444181913205  0.7544373189715685  0.4393294762659323   T   T   T
  0.3760699930000015  0.8746299740000012  0.0360900009999980   F   F   F
  0.3757027819436018  0.8741338804127494  0.1977736844466946   T   T   T
  0.3763258178047337  0.8734809358597531  0.3589282724738752   T   T   T
  0.5010700229999969  0.7496299740000012  0.1170300019999999   F   F   F
  0.5004806654256626  0.7488604643909014  0.2782845682919941   T   T   T
  0.5023422245859308  0.7510829254003539  0.4388778770679664   T   T   T
  0.6260700229999969  0.8746299740000012  0.0360900009999980   F   F   F
  0.6261977068222961  0.8746689921101876  0.1973982791499083   T   T   T
  0.6258972517293628  0.8744957750458013  0.3581774838113176   T   T   T
  0.7510700229999969  0.7496299740000012  0.1170300019999999   F   F   F
  0.7510167535843522  0.7487306386076611  0.2781983091807234   T   T   T
  0.7509354386333058  0.7501719620111231  0.4375082806515778   T   T   T
  0.8760700229999969  0.8746299740000012  0.0360900009999980   F   F   F
  0.8760345722642882  0.8746659873562663  0.1973885525777774   T   T   T
  0.8761784471617062  0.8744197493593830  0.3581919252944132   T   T   T
  0.2513502946211901  0.5007322344770699  0.5269611878816178   T   T   T
  0.2516649822483856  0.5015707940643139  0.5741295634983317   T   T   T
 
  0.00000000E+00  0.00000000E+00  0.00000000E+00
  0.00000000E+00  0.00000000E+00  0.00000000E+00
  0.00000000E+00  0.00000000E+00  0.00000000E+00
  0.00000000E+00  0.00000000E+00  0.00000000E+00
  0.00000000E+00  0.00000000E+00  0.00000000E+00
  0.00000000E+00  0.00000000E+00  0.00000000E+00
  0.00000000E+00  0.00000000E+00  0.00000000E+00
  0.00000000E+00  0.00000000E+00  0.00000000E+00
  0.00000000E+00  0.00000000E+00  0.00000000E+00
  0.00000000E+00  0.00000000E+00  0.00000000E+00
  0.00000000E+00  0.00000000E+00  0.00000000E+00
  0.00000000E+00  0.00000000E+00  0.00000000E+00
  0.00000000E+00  0.00000000E+00  0.00000000E+00
  0.00000000E+00  0.00000000E+00  0.00000000E+00
  0.00000000E+00  0.00000000E+00  0.00000000E+00
  0.00000000E+00  0.00000000E+00  0.00000000E+00
  0.00000000E+00  0.00000000E+00  0.00000000E+00
  0.00000000E+00  0.00000000E+00  0.00000000E+00
  0.00000000E+00  0.00000000E+00  0.00000000E+00
  0.00000000E+00  0.00000000E+00  0.00000000E+00
  0.00000000E+00  0.00000000E+00  0.00000000E+00
  0.00000000E+00  0.00000000E+00  0.00000000E+00
  0.00000000E+00  0.00000000E+00  0.00000000E+00
  0.00000000E+00  0.00000000E+00  0.00000000E+00
  0.00000000E+00  0.00000000E+00  0.00000000E+00
  0.00000000E+00  0.00000000E+00  0.00000000E+00
  0.00000000E+00  0.00000000E+00  0.00000000E+00
  0.00000000E+00  0.00000000E+00  0.00000000E+00
  0.00000000E+00  0.00000000E+00  0.00000000E+00
  0.00000000E+00  0.00000000E+00  0.00000000E+00
  0.00000000E+00  0.00000000E+00  0.00000000E+00
  0.00000000E+00  0.00000000E+00  0.00000000E+00
  0.00000000E+00  0.00000000E+00  0.00000000E+00
  0.00000000E+00  0.00000000E+00  0.00000000E+00
  0.00000000E+00  0.00000000E+00  0.00000000E+00
  0.00000000E+00  0.00000000E+00  0.00000000E+00
  0.00000000E+00  0.00000000E+00  0.00000000E+00
  0.00000000E+00  0.00000000E+00  0.00000000E+00
  0.00000000E+00  0.00000000E+00  0.00000000E+00
  0.00000000E+00  0.00000000E+00  0.00000000E+00
  0.00000000E+00  0.00000000E+00  0.00000000E+00
  0.00000000E+00  0.00000000E+00  0.00000000E+00
  0.00000000E+00  0.00000000E+00  0.00000000E+00
  0.00000000E+00  0.00000000E+00  0.00000000E+00
  0.00000000E+00  0.00000000E+00  0.00000000E+00
  0.00000000E+00  0.00000000E+00  0.00000000E+00
  0.00000000E+00  0.00000000E+00  0.00000000E+00
  0.00000000E+00  0.00000000E+00  0.00000000E+00
  0.00000000E+00  0.00000000E+00  0.00000000E+00
  0.00000000E+00  0.00000000E+00  0.00000000E+00
  0.00000000E+00  0.00000000E+00  0.00000000E+00
  0.00000000E+00  0.00000000E+00  0.00000000E+00
  0.00000000E+00  0.00000000E+00  0.00000000E+00
  0.00000000E+00  0.00000000E+00  0.00000000E+00
  0.00000000E+00  0.00000000E+00  0.00000000E+00
  0.00000000E+00  0.00000000E+00  0.00000000E+00
  0.00000000E+00  0.00000000E+00  0.00000000E+00
  0.00000000E+00  0.00000000E+00  0.00000000E+00
  0.00000000E+00  0.00000000E+00  0.00000000E+00
  0.00000000E+00  0.00000000E+00  0.00000000E+00
  0.00000000E+00  0.00000000E+00  0.00000000E+00
  0.00000000E+00  0.00000000E+00  0.00000000E+00
  0.00000000E+00  0.00000000E+00  0.00000000E+00
  0.00000000E+00  0.00000000E+00  0.00000000E+00
  0.00000000E+00  0.00000000E+00  0.00000000E+00
  0.00000000E+00  0.00000000E+00  0.00000000E+00
  0.00000000E+00  0.00000000E+00  0.00000000E+00
  0.00000000E+00  0.00000000E+00  0.00000000E+00
  0.00000000E+00  0.00000000E+00  0.00000000E+00
  0.00000000E+00  0.00000000E+00  0.00000000E+00
  0.00000000E+00  0.00000000E+00  0.00000000E+00
  0.00000000E+00  0.00000000E+00  0.00000000E+00
  0.00000000E+00  0.00000000E+00  0.00000000E+00
  0.00000000E+00  0.00000000E+00  0.00000000E+00
  0.00000000E+00  0.00000000E+00  0.00000000E+00
  0.00000000E+00  0.00000000E+00  0.00000000E+00
  0.00000000E+00  0.00000000E+00  0.00000000E+00
  0.00000000E+00  0.00000000E+00  0.00000000E+00
  0.00000000E+00  0.00000000E+00  0.00000000E+00
  0.00000000E+00  0.00000000E+00  0.00000000E+00
  0.00000000E+00  0.00000000E+00  0.00000000E+00
  0.00000000E+00  0.00000000E+00  0.00000000E+00
  0.00000000E+00  0.00000000E+00  0.00000000E+00
  0.00000000E+00  0.00000000E+00  0.00000000E+00
  0.00000000E+00  0.00000000E+00  0.00000000E+00
  0.00000000E+00  0.00000000E+00  0.00000000E+00
  0.00000000E+00  0.00000000E+00  0.00000000E+00
  0.00000000E+00  0.00000000E+00  0.00000000E+00
  0.00000000E+00  0.00000000E+00  0.00000000E+00
  0.00000000E+00  0.00000000E+00  0.00000000E+00
  0.00000000E+00  0.00000000E+00  0.00000000E+00
  0.00000000E+00  0.00000000E+00  0.00000000E+00
  0.00000000E+00  0.00000000E+00  0.00000000E+00
  0.00000000E+00  0.00000000E+00  0.00000000E+00
  0.00000000E+00  0.00000000E+00  0.00000000E+00
  0.00000000E+00  0.00000000E+00  0.00000000E+00
  0.00000000E+00  0.00000000E+00  0.00000000E+00
  0.00000000E+00  0.00000000E+00  0.00000000E+00
