       N       E                     dE             d eps       ncg     rms          ort
SDA:   1    -0.661064724619E+03   -0.66106E+03    0.00000E+00   592   0.539E-01 0.000E+00
CGA:   2    -0.661065563437E+03   -0.83882E-03   -0.83839E-03   592   0.314E-02 0.278E-04
CGA:   3    -0.661065905826E+03   -0.34239E-03   -0.34268E-03   592   0.207E-02 0.323E-05
CGA:   4    -0.661066118577E+03   -0.21275E-03   -0.21329E-03   592   0.200E-02 0.641E-05
CGA:   5    -0.661066311643E+03   -0.19307E-03   -0.19274E-03   592   0.491E-02 0.333E-05
CGA:   6    -0.661066475058E+03   -0.16342E-03   -0.16409E-03   592   0.187E-02-0.193E-04
CGA:   7    -0.661066738384E+03   -0.26333E-03   -0.26319E-03   592   0.159E-02-0.234E-05
CGA:   8    -0.661067098585E+03   -0.36020E-03   -0.35990E-03   592   0.583E-02 0.253E-05
CGA:   9    -0.661067262058E+03   -0.16347E-03   -0.15505E-03   592   0.273E-02 0.289E-03
CGA:  10    -0.661067621556E+03   -0.35950E-03   -0.35966E-03   592   0.335E-02 0.601E-05
CGA:  11    -0.661067835407E+03   -0.21385E-03   -0.21915E-03   592   0.644E-02-0.415E-04
CGA:  12    -0.661068058844E+03   -0.22344E-03   -0.20791E-03   592   0.256E-02 0.479E-03
CGA:  13    -0.661068286660E+03   -0.22782E-03   -0.22629E-03   592   0.410E-02 0.261E-04
CGA:  14    -0.661068386111E+03   -0.99451E-04   -0.10679E-03   592   0.181E-02-0.224E-03
CGA:  15    -0.661068612415E+03   -0.22630E-03   -0.22638E-03   592   0.184E-02 0.657E-05
CGA:  16    -0.661068668866E+03   -0.56451E-04   -0.55147E-04   592   0.175E-02 0.361E-04
CGA:  17    -0.661068886303E+03   -0.21744E-03   -0.21747E-03   592   0.154E-02-0.889E-06
CGA:  18    -0.661068957275E+03   -0.70972E-04   -0.72096E-04   592   0.250E-02-0.243E-04
CGA:  19    -0.661069084232E+03   -0.12696E-03   -0.12297E-03   592   0.142E-02 0.468E-04
CGA:  20    -0.661069198565E+03   -0.11433E-03   -0.11367E-03   592   0.218E-02 0.496E-05
CGA:  21    -0.661069256979E+03   -0.58414E-04   -0.61556E-04   592   0.111E-02-0.862E-04
CGA:  22    -0.661069387058E+03   -0.13008E-03   -0.13009E-03   592   0.768E-03 0.149E-06
CGA:  23    -0.661069421127E+03   -0.34070E-04   -0.33881E-04   592   0.121E-02 0.449E-05
CGA:  24    -0.661069498852E+03   -0.77724E-04   -0.78253E-04   592   0.445E-03-0.839E-06
CGA:  25    -0.661069549182E+03   -0.50330E-04   -0.50331E-04   592   0.118E-02 0.445E-06
CGA:  26    -0.661069584453E+03   -0.35271E-04   -0.34906E-04   592   0.532E-03 0.985E-05
CGA:  27    -0.661069638356E+03   -0.53902E-04   -0.53928E-04   592   0.539E-03 0.268E-05
CGA:  28    -0.661069664961E+03   -0.26606E-04   -0.26724E-04   592   0.830E-03-0.728E-06
CGA:  29    -0.661069702190E+03   -0.37229E-04   -0.37120E-04   592   0.321E-03 0.950E-06
CGA:  30    -0.661069750229E+03   -0.48039E-04   -0.48057E-04   592   0.944E-03-0.297E-06
CGA:  31    -0.661069772928E+03   -0.22699E-04   -0.22760E-04   592   0.244E-03-0.383E-05
SDA:  32    -0.661069810224E+03   -0.37295E-04   -0.37455E-04   592   0.353E-03-0.301E-05
CGA:  33    -0.661069820574E+03   -0.10351E-04   -0.10374E-04   592   0.245E-03 0.331E-06
CGA:  34    -0.661069836359E+03   -0.15784E-04   -0.15814E-04   592   0.171E-03 0.864E-06
CGA:  35    -0.661069860864E+03   -0.24505E-04   -0.24535E-04   592   0.178E-03-0.668E-06
CGA:  36    -0.661069884068E+03   -0.23205E-04   -0.23162E-04   592   0.201E-03 0.139E-05
CGA:  37    -0.661069891077E+03   -0.70084E-05   -0.70150E-05   592   0.196E-03 0.545E-06
CGA:  38    -0.661069912210E+03   -0.21133E-04   -0.21127E-04   592   0.858E-04 0.662E-06
CGA:  39    -0.661069927588E+03   -0.15378E-04   -0.15345E-04   592   0.113E-03 0.408E-06
CGA:  40    -0.661069937847E+03   -0.10259E-04   -0.10248E-04   592   0.208E-03-0.914E-06
CGA:  41    -0.661069944537E+03   -0.66905E-05   -0.66200E-05   592   0.972E-04-0.121E-06
   1 F= -.66106994E+03 E0= -.66094307E+03  d E =-.253751E+00
