top                                     
   1.00000000000000     
    11.3060801559000002    0.0000000000000000    0.0000000000000000
     0.0000000000000000   11.3060801559000002    0.0000000000000000
     0.0000000000000000    0.0000000000000000   24.6953447088999987
   Pt   C    O 
    96     1     1
Selective dynamics
Direct
  0.0010699999999986  0.9996299740000012  0.1170300019999999   F   F   F
  0.0019544048743676  0.9995482791464967  0.2781814503932705   T   T   T
  0.0004881443327431  0.9994442841669029  0.4374887592086704   T   T   T
  0.1260699930000015  0.1246299969999995  0.0360900009999980   F   F   F
  0.1265881754081848  0.1249756947781571  0.1978142247239293   T   T   T
  0.1257806586526536  0.1257268205282401  0.3589604309503349   T   T   T
  0.2510699930000015  0.9996299740000012  0.1170300019999999   F   F   F
  0.2511663130062979  0.9996176180774476  0.2787825345693248   T   T   T
  0.2510106017741765  0.9995559221747813  0.4380884133269838   T   T   T
  0.3760699930000015  0.1246299969999995  0.0360900009999980   F   F   F
  0.3757654344276177  0.1249912415881319  0.1978064735782613   T   T   T
  0.3763022479997631  0.1257318004606782  0.3589682645694385   T   T   T
  0.5010700229999969  0.9996299740000012  0.1170300019999999   F   F   F
  0.5003604885636496  0.9995416125673690  0.2781959211403175   T   T   T
  0.5016659845831075  0.9995690654573597  0.4375073908813220   T   T   T
  0.6260700229999969  0.1246299969999995  0.0360900009999980   F   F   F
  0.6262612808039211  0.1244931045467248  0.1974079513594349   T   T   T
  0.6259627510601000  0.1246391880464953  0.3581828029077520   T   T   T
  0.7510700229999969  0.9996299740000012  0.1170300019999999   F   F   F
  0.7511939667795479  0.9994998791893983  0.2778836541246300   T   T   T
  0.7510563535756627  0.9994762490055005  0.4374473501284223   T   T   T
  0.8760700229999969  0.1246299969999995  0.0360900009999980   F   F   F
  0.8760551401361490  0.1245196702084578  0.1973998789856108   T   T   T
  0.8761948249992559  0.1246269327759207  0.3581995409070555   T   T   T
  0.0010699999999986  0.2496300039999966  0.1170300019999999   F   F   F
  0.0017493536023049  0.2502274503669641  0.2783017818892722   T   T   T
 -0.0005750122155000  0.2480799451902639  0.4388873432982179   T   T   T
  0.1260699930000015  0.3746300039999966  0.0360900009999980   F   F   F
  0.1264145658812210  0.3748962877434225  0.1978972642573470   T   T   T
  0.1282637174454950  0.3770882398894290  0.3624487679634736   T   T   T
  0.2510699930000015  0.2496300039999966  0.1170300019999999   F   F   F
  0.2510941223892972  0.2516613407214359  0.2796984137867948   T   T   T
  0.2508153241556225  0.2447697145201062  0.4393957501555121   T   T   T
  0.3760699930000015  0.3746300039999966  0.0360900009999980   F   F   F
  0.3758455023595650  0.3748852261415159  0.1979236629241648   T   T   T
  0.3734282791108635  0.3771123940982442  0.3624367636082763   T   T   T
  0.5010700229999969  0.2496300039999966  0.1170300019999999   F   F   F
  0.5005177074828808  0.2502388077490834  0.2783495696732334   T   T   T
  0.5023365238020596  0.2481733282886712  0.4388722002627679   T   T   T
  0.6260700229999969  0.3746300039999966  0.0360900009999980   F   F   F
  0.6257861566862498  0.3750112169102603  0.1978150350954630   T   T   T
  0.6248556249618490  0.3743723029772728  0.3590014392938526   T   T   T
  0.7510700229999969  0.2496300039999966  0.1170300019999999   F   F   F
  0.7510824743630361  0.2503306168554033  0.2782262116131888   T   T   T
  0.7509348765737860  0.2487636738593716  0.4375449448106934   T   T   T
  0.8760700229999969  0.3746300039999966  0.0360900009999980   F   F   F
  0.8764223135161180  0.3750258092702159  0.1978234818024287   T   T   T
  0.8769912523885367  0.3742130515937539  0.3589807332471648   T   T   T
  0.0010699999999986  0.4996300039999966  0.1170300019999999   F   F   F
  0.0030183712281244  0.4995322405210615  0.2796815579907109   T   T   T
 -0.0041457326914000  0.4995690716682374  0.4393891375387433   T   T   T
  0.1260699930000015  0.6246299740000012  0.0360900009999980   F   F   F
  0.1263778221334441  0.6243190319028843  0.1978884865238940   T   T   T
  0.1282324390257208  0.6221912161636592  0.3624262338941315   T   T   T
  0.2510699930000015  0.4996300039999966  0.1170300019999999   F   F   F
  0.2509063061607486  0.4996074307865672  0.2797834038995251   T   T   T
  0.2509705864327461  0.4993339373523822  0.4519979675226311   T   T   T
  0.3760699930000015  0.6246299740000012  0.0360900009999980   F   F   F
  0.3757801418701210  0.6241551535694146  0.1978910607607727   T   T   T
  0.3734737135908186  0.6222467482366493  0.3623935835791737   T   T   T
  0.5010700229999969  0.4996300039999966  0.1170300019999999   F   F   F
  0.4989945857443721  0.4995677730869260  0.2797373506091494   T   T   T
  0.5055723230288464  0.4996947799017196  0.4393710364130458   T   T   T
  0.6260700229999969  0.6246299740000012  0.0360900009999980   F   F   F
  0.6257284963379818  0.6240657887128458  0.1978012539290299   T   T   T
  0.6248372272559041  0.6248657071249544  0.3589884076307660   T   T   T
  0.7510700229999969  0.4996300039999966  0.1170300019999999   F   F   F
  0.7510217537956120  0.4995385986994400  0.2788129336642025   T   T   T
  0.7507612084373458  0.4995529327273210  0.4381384017752329   T   T   T
  0.8760700229999969  0.6246299740000012  0.0360900009999980   F   F   F
  0.8763660184543919  0.6241503303504241  0.1978083939866421   T   T   T
  0.8770067442927230  0.6247603681391342  0.3589416322126565   T   T   T
  0.0010699999999986  0.7496299740000012  0.1170300019999999   F   F   F
  0.0016705108462699  0.7488817981026844  0.2782773328049652   T   T   T
 -0.0006095906301456  0.7510184199240291  0.4389094973515717   T   T   T
  0.1260699930000015  0.8746299740000012  0.0360900009999980   F   F   F
  0.1265755375357406  0.8742726377382611  0.1978086938310738   T   T   T
  0.1257728486350108  0.8734490851559811  0.3589014284997906   T   T   T
  0.2510699930000015  0.7496299740000012  0.1170300019999999   F   F   F
  0.2510612571684335  0.7475964533053672  0.2796579488162698   T   T   T
  0.2508444181913231  0.7544373189715654  0.4393294762659345   T   T   T
  0.3760699930000015  0.8746299740000012  0.0360900009999980   F   F   F
  0.3757027819435988  0.8741338804127493  0.1977736844466949   T   T   T
  0.3763258178047322  0.8734809358597511  0.3589282724738776   T   T   T
  0.5010700229999969  0.7496299740000012  0.1170300019999999   F   F   F
  0.5004806654256650  0.7488604643909011  0.2782845682919963   T   T   T
  0.5023422245859323  0.7510829254003520  0.4388778770679642   T   T   T
  0.6260700229999969  0.8746299740000012  0.0360900009999980   F   F   F
  0.6261977068222976  0.8746689921101868  0.1973982791499115   T   T   T
  0.6258972517293647  0.8744957750458031  0.3581774838113207   T   T   T
  0.7510700229999969  0.7496299740000012  0.1170300019999999   F   F   F
  0.7510167535843493  0.7487306386076612  0.2781983091807264   T   T   T
  0.7509354386333090  0.7501719620111210  0.4375082806515780   T   T   T
  0.8760700229999969  0.8746299740000012  0.0360900009999980   F   F   F
  0.8760345722642887  0.8746659873562636  0.1973885525777786   T   T   T
  0.8761784471617096  0.8744197493593807  0.3581919252944112   T   T   T
  0.2513502946211872  0.5007322344770692  0.5269611878816156   T   T   T
  0.2516649822483875  0.5015707940643107  0.5741295634983288   T   T   T
 
  0.00000000E+00  0.00000000E+00  0.00000000E+00
  0.00000000E+00  0.00000000E+00  0.00000000E+00
  0.00000000E+00  0.00000000E+00  0.00000000E+00
  0.00000000E+00  0.00000000E+00  0.00000000E+00
  0.00000000E+00  0.00000000E+00  0.00000000E+00
  0.00000000E+00  0.00000000E+00  0.00000000E+00
  0.00000000E+00  0.00000000E+00  0.00000000E+00
  0.00000000E+00  0.00000000E+00  0.00000000E+00
  0.00000000E+00  0.00000000E+00  0.00000000E+00
  0.00000000E+00  0.00000000E+00  0.00000000E+00
  0.00000000E+00  0.00000000E+00  0.00000000E+00
  0.00000000E+00  0.00000000E+00  0.00000000E+00
  0.00000000E+00  0.00000000E+00  0.00000000E+00
  0.00000000E+00  0.00000000E+00  0.00000000E+00
  0.00000000E+00  0.00000000E+00  0.00000000E+00
  0.00000000E+00  0.00000000E+00  0.00000000E+00
  0.00000000E+00  0.00000000E+00  0.00000000E+00
  0.00000000E+00  0.00000000E+00  0.00000000E+00
  0.00000000E+00  0.00000000E+00  0.00000000E+00
  0.00000000E+00  0.00000000E+00  0.00000000E+00
  0.00000000E+00  0.00000000E+00  0.00000000E+00
  0.00000000E+00  0.00000000E+00  0.00000000E+00
  0.00000000E+00  0.00000000E+00  0.00000000E+00
  0.00000000E+00  0.00000000E+00  0.00000000E+00
  0.00000000E+00  0.00000000E+00  0.00000000E+00
  0.00000000E+00  0.00000000E+00  0.00000000E+00
  0.00000000E+00  0.00000000E+00  0.00000000E+00
  0.00000000E+00  0.00000000E+00  0.00000000E+00
  0.00000000E+00  0.00000000E+00  0.00000000E+00
  0.00000000E+00  0.00000000E+00  0.00000000E+00
  0.00000000E+00  0.00000000E+00  0.00000000E+00
  0.00000000E+00  0.00000000E+00  0.00000000E+00
  0.00000000E+00  0.00000000E+00  0.00000000E+00
  0.00000000E+00  0.00000000E+00  0.00000000E+00
  0.00000000E+00  0.00000000E+00  0.00000000E+00
  0.00000000E+00  0.00000000E+00  0.00000000E+00
  0.00000000E+00  0.00000000E+00  0.00000000E+00
  0.00000000E+00  0.00000000E+00  0.00000000E+00
  0.00000000E+00  0.00000000E+00  0.00000000E+00
  0.00000000E+00  0.00000000E+00  0.00000000E+00
  0.00000000E+00  0.00000000E+00  0.00000000E+00
  0.00000000E+00  0.00000000E+00  0.00000000E+00
  0.00000000E+00  0.00000000E+00  0.00000000E+00
  0.00000000E+00  0.00000000E+00  0.00000000E+00
  0.00000000E+00  0.00000000E+00  0.00000000E+00
  0.00000000E+00  0.00000000E+00  0.00000000E+00
  0.00000000E+00  0.00000000E+00  0.00000000E+00
  0.00000000E+00  0.00000000E+00  0.00000000E+00
  0.00000000E+00  0.00000000E+00  0.00000000E+00
  0.00000000E+00  0.00000000E+00  0.00000000E+00
  0.00000000E+00  0.00000000E+00  0.00000000E+00
  0.00000000E+00  0.00000000E+00  0.00000000E+00
  0.00000000E+00  0.00000000E+00  0.00000000E+00
  0.00000000E+00  0.00000000E+00  0.00000000E+00
  0.00000000E+00  0.00000000E+00  0.00000000E+00
  0.00000000E+00  0.00000000E+00  0.00000000E+00
  0.00000000E+00  0.00000000E+00  0.00000000E+00
  0.00000000E+00  0.00000000E+00  0.00000000E+00
  0.00000000E+00  0.00000000E+00  0.00000000E+00
  0.00000000E+00  0.00000000E+00  0.00000000E+00
  0.00000000E+00  0.00000000E+00  0.00000000E+00
  0.00000000E+00  0.00000000E+00  0.00000000E+00
  0.00000000E+00  0.00000000E+00  0.00000000E+00
  0.00000000E+00  0.00000000E+00  0.00000000E+00
  0.00000000E+00  0.00000000E+00  0.00000000E+00
  0.00000000E+00  0.00000000E+00  0.00000000E+00
  0.00000000E+00  0.00000000E+00  0.00000000E+00
  0.00000000E+00  0.00000000E+00  0.00000000E+00
  0.00000000E+00  0.00000000E+00  0.00000000E+00
  0.00000000E+00  0.00000000E+00  0.00000000E+00
  0.00000000E+00  0.00000000E+00  0.00000000E+00
  0.00000000E+00  0.00000000E+00  0.00000000E+00
  0.00000000E+00  0.00000000E+00  0.00000000E+00
  0.00000000E+00  0.00000000E+00  0.00000000E+00
  0.00000000E+00  0.00000000E+00  0.00000000E+00
  0.00000000E+00  0.00000000E+00  0.00000000E+00
  0.00000000E+00  0.00000000E+00  0.00000000E+00
  0.00000000E+00  0.00000000E+00  0.00000000E+00
  0.00000000E+00  0.00000000E+00  0.00000000E+00
  0.00000000E+00  0.00000000E+00  0.00000000E+00
  0.00000000E+00  0.00000000E+00  0.00000000E+00
  0.00000000E+00  0.00000000E+00  0.00000000E+00
  0.00000000E+00  0.00000000E+00  0.00000000E+00
  0.00000000E+00  0.00000000E+00  0.00000000E+00
  0.00000000E+00  0.00000000E+00  0.00000000E+00
  0.00000000E+00  0.00000000E+00  0.00000000E+00
  0.00000000E+00  0.00000000E+00  0.00000000E+00
  0.00000000E+00  0.00000000E+00  0.00000000E+00
  0.00000000E+00  0.00000000E+00  0.00000000E+00
  0.00000000E+00  0.00000000E+00  0.00000000E+00
  0.00000000E+00  0.00000000E+00  0.00000000E+00
  0.00000000E+00  0.00000000E+00  0.00000000E+00
  0.00000000E+00  0.00000000E+00  0.00000000E+00
  0.00000000E+00  0.00000000E+00  0.00000000E+00
  0.00000000E+00  0.00000000E+00  0.00000000E+00
  0.00000000E+00  0.00000000E+00  0.00000000E+00
  0.00000000E+00  0.00000000E+00  0.00000000E+00
  0.00000000E+00  0.00000000E+00  0.00000000E+00
