Au\(1\0\0)                              
   1.00000000000000     
    11.3060801559000002    0.0000000000000000    0.0000000000000000
     0.0000000000000000   11.3060801559000002    0.0000000000000000
     0.0000000000000000    0.0000000000000000   24.6953447088999987
   Pt
    96
Selective dynamics
Direct
  0.0010699999999986  0.9996299740000012  0.1170300019999999   F   F   F
  0.0010778955716049  0.9996172889518178  0.2794144828361453   T   T   T
  0.0010627339798646  0.9996414532750961  0.4396071939654860   T   T   T
  0.1260699930000015  0.1246299969999995  0.0360900009999980   F   F   F
  0.1261174506070688  0.1245834682880442  0.1978449963095841   T   T   T
  0.1260512774879601  0.1246403421024240  0.3602129678650456   T   T   T
  0.2510699930000015  0.9996299740000012  0.1170300019999999   F   F   F
  0.2510776801090913  0.9996172697974757  0.2794137696151537   T   T   T
  0.2510619647210390  0.9996414699997587  0.4396080005401188   T   T   T
  0.3760699930000015  0.1246299969999995  0.0360900009999980   F   F   F
  0.3761165029018301  0.1245834400500385  0.1978440719066938   T   T   T
  0.3760515867867724  0.1246403047313507  0.3602125321459084   T   T   T
  0.5010700229999969  0.9996299740000012  0.1170300019999999   F   F   F
  0.5010776187181420  0.9996173010911278  0.2794133987655485   T   T   T
  0.5010631168825981  0.9996414447476809  0.4396086362375229   T   T   T
  0.6260700229999969  0.1246299969999995  0.0360900009999980   F   F   F
  0.6261143986635034  0.1245834592407675  0.1978444120472176   T   T   T
  0.6260530193442690  0.1246403266939282  0.3602126181539305   T   T   T
  0.7510700229999969  0.9996299740000012  0.1170300019999999   F   F   F
  0.7510779550879434  0.9996173136638546  0.2794141127519651   T   T   T
  0.7510639642626558  0.9996414304887296  0.4396078316652563   T   T   T
  0.8760700229999969  0.1246299969999995  0.0360900009999980   F   F   F
  0.8761153415039189  0.1245834875885024  0.1978453088409324   T   T   T
  0.8760527538353102  0.1246403536960656  0.3602130483866688   T   T   T
  0.0010699999999986  0.2496300039999966  0.1170300019999999   F   F   F
  0.0010778544367369  0.2496171332744623  0.2794148332034965   T   T   T
  0.0010627538142529  0.2496410076400153  0.4396066646291459   T   T   T
  0.1260699930000015  0.3746300039999966  0.0360900009999980   F   F   F
  0.1261174149723487  0.3745843180702053  0.1978451475417131   T   T   T
  0.1260512425212781  0.3746394979457150  0.3602130644874819   T   T   T
  0.2510699930000015  0.2496300039999966  0.1170300019999999   F   F   F
  0.2510776601544933  0.2496170911022944  0.2794141077445715   T   T   T
  0.2510619499280082  0.2496410022953128  0.4396074927400875   T   T   T
  0.3760699930000015  0.3746300039999966  0.0360900009999980   F   F   F
  0.3761165005696867  0.3745843185822082  0.1978442426958296   T   T   T
  0.3760515813934617  0.3746394921237197  0.3602126210877259   T   T   T
  0.5010700229999969  0.2496300039999966  0.1170300019999999   F   F   F
  0.5010776694223296  0.2496170981852757  0.2794137288504004   T   T   T
  0.5010630996344076  0.2496409904303931  0.4396080869523615   T   T   T
  0.6260700229999969  0.3746300039999966  0.0360900009999980   F   F   F
  0.6261144283810580  0.3745843221564087  0.1978445953191539   T   T   T
  0.6260530545820089  0.3746395049968214  0.3602126754812929   T   T   T
  0.7510700229999969  0.2496300039999966  0.1170300019999999   F   F   F
  0.7510779608486118  0.2496171364865347  0.2794144476731333   T   T   T
  0.7510639760722242  0.2496409941493454  0.4396072918688532   T   T   T
  0.8760700229999969  0.3746300039999966  0.0360900009999980   F   F   F
  0.8761153512271918  0.3745843269322577  0.1978454736459980   T   T   T
  0.8760527623194747  0.3746395176826738  0.3602131114706708   T   T   T
  0.0010699999999986  0.4996300039999966  0.1170300019999999   F   F   F
  0.0010778387563448  0.4996169932667840  0.2794146490490519   T   T   T
  0.0010627404317773  0.4996402836978859  0.4396070195029438   T   T   T
  0.1260699930000015  0.6246299740000012  0.0360900009999980   F   F   F
  0.1261174269659548  0.6245847545321581  0.1978447309187175   T   T   T
  0.1260512644264935  0.6246393001831763  0.3602127882555308   T   T   T
  0.2510699930000015  0.4996300039999966  0.1170300019999999   F   F   F
  0.2510776523749101  0.4996170075642823  0.2794139217271194   T   T   T
  0.2510619476074396  0.4996402622973477  0.4396078360331188   T   T   T
  0.3760699930000015  0.6246299740000012  0.0360900009999980   F   F   F
  0.3761165028908167  0.6245847814304710  0.1978437953456336   T   T   T
  0.3760515768648887  0.6246393353584168  0.3602123707582408   T   T   T
  0.5010700229999969  0.4996300039999966  0.1170300019999999   F   F   F
  0.5010776667181318  0.4996169887478743  0.2794135432390732   T   T   T
  0.5010631124967375  0.4996402826952249  0.4396084624442835   T   T   T
  0.6260700229999969  0.6246299740000012  0.0360900009999980   F   F   F
  0.6261144199076725  0.6245847615250284  0.1978441124347228   T   T   T
  0.6260530392266261  0.6246393004432207  0.3602124607323844   T   T   T
  0.7510700229999969  0.4996300039999966  0.1170300019999999   F   F   F
  0.7510779874486317  0.4996169766020628  0.2794142732475251   T   T   T
  0.7510639783472541  0.4996403054111482  0.4396076505202444   T   T   T
  0.8760700229999969  0.6246299740000012  0.0360900009999980   F   F   F
  0.8761153403424373  0.6245847403983618  0.1978450259369779   T   T   T
  0.8760527574884449  0.6246392712756474  0.3602128671555320   T   T   T
  0.0010699999999986  0.7496299740000012  0.1170300019999999   F   F   F
  0.0010778779669494  0.7496171924578903  0.2794142937491699   T   T   T
  0.0010627199513351  0.7496407139583994  0.4396075345915378   T   T   T
  0.1260699930000015  0.8746299740000012  0.0360900009999980   F   F   F
  0.1261174630193054  0.8745838757709166  0.1978445814293224   T   T   T
  0.1260513043197875  0.8746401305128515  0.3602126797446630   T   T   T
  0.2510699930000015  0.7496299740000012  0.1170300019999999   F   F   F
  0.2510776692132097  0.7496172393272431  0.2794135788704821   T   T   T
  0.2510619566522792  0.7496407228757960  0.4396083640813302   T   T   T
  0.3760699930000015  0.8746299740000012  0.0360900009999980   F   F   F
  0.3761164995869137  0.8745838933684027  0.1978436256833618   T   T   T
  0.3760515796829651  0.8746401313190688  0.3602122738605757   T   T   T
  0.5010700229999969  0.7496299740000012  0.1170300019999999   F   F   F
  0.5010776163511537  0.7496172209269858  0.2794132139111696   T   T   T
  0.5010631321556431  0.7496407330996178  0.4396090031087567   T   T   T
  0.6260700229999969  0.8746299740000012  0.0360900009999980   F   F   F
  0.6261143918768539  0.8745838785736026  0.1978439268392762   T   T   T
  0.6260530064308085  0.8746401372084023  0.3602123990407620   T   T   T
  0.7510700229999969  0.7496299740000012  0.1170300019999999   F   F   F
  0.7510779844539570  0.7496171838851708  0.2794139243726903   T   T   T
  0.7510639772386298  0.7496407297272327  0.4396082041755704   T   T   T
  0.8760700229999969  0.8746299740000012  0.0360900009999980   F   F   F
  0.8761153324090500  0.8745838616650801  0.1978448605556338   T   T   T
  0.8760527494294550  0.8746401246580504  0.3602127957235552   T   T   T
 
  0.00000000E+00  0.00000000E+00  0.00000000E+00
  0.00000000E+00  0.00000000E+00  0.00000000E+00
  0.00000000E+00  0.00000000E+00  0.00000000E+00
  0.00000000E+00  0.00000000E+00  0.00000000E+00
  0.00000000E+00  0.00000000E+00  0.00000000E+00
  0.00000000E+00  0.00000000E+00  0.00000000E+00
  0.00000000E+00  0.00000000E+00  0.00000000E+00
  0.00000000E+00  0.00000000E+00  0.00000000E+00
  0.00000000E+00  0.00000000E+00  0.00000000E+00
  0.00000000E+00  0.00000000E+00  0.00000000E+00
  0.00000000E+00  0.00000000E+00  0.00000000E+00
  0.00000000E+00  0.00000000E+00  0.00000000E+00
  0.00000000E+00  0.00000000E+00  0.00000000E+00
  0.00000000E+00  0.00000000E+00  0.00000000E+00
  0.00000000E+00  0.00000000E+00  0.00000000E+00
  0.00000000E+00  0.00000000E+00  0.00000000E+00
  0.00000000E+00  0.00000000E+00  0.00000000E+00
  0.00000000E+00  0.00000000E+00  0.00000000E+00
  0.00000000E+00  0.00000000E+00  0.00000000E+00
  0.00000000E+00  0.00000000E+00  0.00000000E+00
  0.00000000E+00  0.00000000E+00  0.00000000E+00
  0.00000000E+00  0.00000000E+00  0.00000000E+00
  0.00000000E+00  0.00000000E+00  0.00000000E+00
  0.00000000E+00  0.00000000E+00  0.00000000E+00
  0.00000000E+00  0.00000000E+00  0.00000000E+00
  0.00000000E+00  0.00000000E+00  0.00000000E+00
  0.00000000E+00  0.00000000E+00  0.00000000E+00
  0.00000000E+00  0.00000000E+00  0.00000000E+00
  0.00000000E+00  0.00000000E+00  0.00000000E+00
  0.00000000E+00  0.00000000E+00  0.00000000E+00
  0.00000000E+00  0.00000000E+00  0.00000000E+00
  0.00000000E+00  0.00000000E+00  0.00000000E+00
  0.00000000E+00  0.00000000E+00  0.00000000E+00
  0.00000000E+00  0.00000000E+00  0.00000000E+00
  0.00000000E+00  0.00000000E+00  0.00000000E+00
  0.00000000E+00  0.00000000E+00  0.00000000E+00
  0.00000000E+00  0.00000000E+00  0.00000000E+00
  0.00000000E+00  0.00000000E+00  0.00000000E+00
  0.00000000E+00  0.00000000E+00  0.00000000E+00
  0.00000000E+00  0.00000000E+00  0.00000000E+00
  0.00000000E+00  0.00000000E+00  0.00000000E+00
  0.00000000E+00  0.00000000E+00  0.00000000E+00
  0.00000000E+00  0.00000000E+00  0.00000000E+00
  0.00000000E+00  0.00000000E+00  0.00000000E+00
  0.00000000E+00  0.00000000E+00  0.00000000E+00
  0.00000000E+00  0.00000000E+00  0.00000000E+00
  0.00000000E+00  0.00000000E+00  0.00000000E+00
  0.00000000E+00  0.00000000E+00  0.00000000E+00
  0.00000000E+00  0.00000000E+00  0.00000000E+00
  0.00000000E+00  0.00000000E+00  0.00000000E+00
  0.00000000E+00  0.00000000E+00  0.00000000E+00
  0.00000000E+00  0.00000000E+00  0.00000000E+00
  0.00000000E+00  0.00000000E+00  0.00000000E+00
  0.00000000E+00  0.00000000E+00  0.00000000E+00
  0.00000000E+00  0.00000000E+00  0.00000000E+00
  0.00000000E+00  0.00000000E+00  0.00000000E+00
  0.00000000E+00  0.00000000E+00  0.00000000E+00
  0.00000000E+00  0.00000000E+00  0.00000000E+00
  0.00000000E+00  0.00000000E+00  0.00000000E+00
  0.00000000E+00  0.00000000E+00  0.00000000E+00
  0.00000000E+00  0.00000000E+00  0.00000000E+00
  0.00000000E+00  0.00000000E+00  0.00000000E+00
  0.00000000E+00  0.00000000E+00  0.00000000E+00
  0.00000000E+00  0.00000000E+00  0.00000000E+00
  0.00000000E+00  0.00000000E+00  0.00000000E+00
  0.00000000E+00  0.00000000E+00  0.00000000E+00
  0.00000000E+00  0.00000000E+00  0.00000000E+00
  0.00000000E+00  0.00000000E+00  0.00000000E+00
  0.00000000E+00  0.00000000E+00  0.00000000E+00
  0.00000000E+00  0.00000000E+00  0.00000000E+00
  0.00000000E+00  0.00000000E+00  0.00000000E+00
  0.00000000E+00  0.00000000E+00  0.00000000E+00
  0.00000000E+00  0.00000000E+00  0.00000000E+00
  0.00000000E+00  0.00000000E+00  0.00000000E+00
  0.00000000E+00  0.00000000E+00  0.00000000E+00
  0.00000000E+00  0.00000000E+00  0.00000000E+00
  0.00000000E+00  0.00000000E+00  0.00000000E+00
  0.00000000E+00  0.00000000E+00  0.00000000E+00
  0.00000000E+00  0.00000000E+00  0.00000000E+00
  0.00000000E+00  0.00000000E+00  0.00000000E+00
  0.00000000E+00  0.00000000E+00  0.00000000E+00
  0.00000000E+00  0.00000000E+00  0.00000000E+00
  0.00000000E+00  0.00000000E+00  0.00000000E+00
  0.00000000E+00  0.00000000E+00  0.00000000E+00
  0.00000000E+00  0.00000000E+00  0.00000000E+00
  0.00000000E+00  0.00000000E+00  0.00000000E+00
  0.00000000E+00  0.00000000E+00  0.00000000E+00
  0.00000000E+00  0.00000000E+00  0.00000000E+00
  0.00000000E+00  0.00000000E+00  0.00000000E+00
  0.00000000E+00  0.00000000E+00  0.00000000E+00
  0.00000000E+00  0.00000000E+00  0.00000000E+00
  0.00000000E+00  0.00000000E+00  0.00000000E+00
  0.00000000E+00  0.00000000E+00  0.00000000E+00
  0.00000000E+00  0.00000000E+00  0.00000000E+00
  0.00000000E+00  0.00000000E+00  0.00000000E+00
  0.00000000E+00  0.00000000E+00  0.00000000E+00
