   96   96    1    1
  0.3288274E+02  0.1130608E-08  0.1130608E-08  0.2469534E-08  0.5000000E-15
  1.000000000000000E-004
  CAR 
                                         
    960      1    576
 
  0.0000000E+00  0.0000000E+00  0.0000000E+00  0.1000000E+01
    1       -8.193314   1.000000
    2       -7.152137   1.000000
    3       -6.669390   1.000000
    4       -6.669090   1.000000
    5       -6.668911   1.000000
    6       -6.668636   1.000000
    7       -5.985128   1.000000
    8       -5.984970   1.000000
    9       -5.984872   1.000000
   10       -5.984634   1.000000
   11       -5.848850   1.000000
   12       -5.501173   1.000000
   13       -5.499852   1.000000
   14       -5.491492   1.000000
   15       -5.490429   1.000000
   16       -5.484370   1.000000
   17       -5.436785   1.000000
   18       -5.431491   1.000000
   19       -5.430823   1.000000
   20       -5.425531   1.000000
   21       -5.381352   1.000000
   22       -5.371386   1.000000
   23       -5.204187   1.000000
   24       -5.203954   1.000000
   25       -5.203582   1.000000
   26       -5.203432   1.000000
   27       -4.942896   1.000000
   28       -4.868586   1.000000
   29       -4.868501   1.000000
   30       -4.829521   1.000000
   31       -4.826872   1.000000
   32       -4.821174   1.000000
   33       -4.796735   1.000000
   34       -4.794425   1.000000
   35       -4.775371   1.000000
   36       -4.774981   1.000000
   37       -4.774558   1.000000
   38       -4.774121   1.000000
   39       -4.738020   1.000000
   40       -4.692382   1.000000
   41       -4.690015   1.000000
   42       -4.688103   1.000000
   43       -4.687658   1.000000
   44       -4.683546   1.000000
   45       -4.672708   1.000000
   46       -4.646560   1.000000
   47       -4.645951   1.000000
   48       -4.635126   1.000000
   49       -4.634831   1.000000
   50       -4.621849   1.000000
   51       -4.621427   1.000000
   52       -4.611734   1.000000
   53       -4.611432   1.000000
   54       -4.518895   1.000000
   55       -4.518795   1.000000
   56       -4.516249   1.000000
   57       -4.515795   1.000000
   58       -4.484284   1.000000
   59       -4.484091   1.000000
   60       -4.482839   1.000000
   61       -4.482545   1.000000
   62       -4.467128   1.000000
   63       -4.266126   1.000000
   64       -4.265735   1.000000
   65       -4.256034   1.000000
   66       -4.255948   1.000000
   67       -4.166422   1.000000
   68       -4.165755   1.000000
   69       -4.155073   1.000000
   70       -4.154390   1.000000
   71       -4.132226   1.000000
   72       -4.131282   1.000000
   73       -4.129342   1.000000
   74       -4.129238   1.000000
   75       -4.119607   1.000000
   76       -4.119444   1.000000
   77       -4.101518   1.000000
   78       -4.100743   1.000000
   79       -4.062406   1.000000
   80       -4.061962   1.000000
   81       -4.004516   1.000000
   82       -3.996327   1.000000
   83       -3.994638   1.000000
   84       -3.985595   1.000000
   85       -3.959567   1.000000
   86       -3.959386   1.000000
   87       -3.958226   1.000000
   88       -3.957000   1.000000
   89       -3.814442   1.000000
   90       -3.811799   1.000000
   91       -3.808442   1.000000
   92       -3.803401   1.000000
   93       -3.739554   1.000000
   94       -3.739418   1.000000
   95       -3.739177   1.000000
   96       -3.739017   1.000000
   97       -3.734539   1.000000
   98       -3.731684   1.000000
   99       -3.713320   1.000000
  100       -3.705247   1.000000
  101       -3.704683   1.000000
  102       -3.700217   1.000000
  103       -3.698970   1.000000
  104       -3.698653   1.000000
  105       -3.693336   1.000000
  106       -3.690068   1.000000
  107       -3.689854   1.000000
  108       -3.673904   1.000000
  109       -3.673544   1.000000
  110       -3.663045   1.000000
  111       -3.662569   1.000000
  112       -3.512669   1.000000
  113       -3.507933   1.000000
  114       -3.507441   1.000000
  115       -3.503254   1.000000
  116       -3.430530   1.000000
  117       -3.423130   1.000000
  118       -3.422695   1.000000
  119       -3.415077   1.000000
  120       -3.303887   1.000000
  121       -3.297290   1.000000
  122       -3.294687   1.000000
  123       -3.288520   1.000000
  124       -3.247169   1.000000
  125       -3.247046   1.000000
  126       -3.247017   1.000000
  127       -3.246869   1.000000
  128       -3.166887   1.000000
  129       -3.166776   1.000000
  130       -3.166678   1.000000
  131       -3.166525   1.000000
  132       -3.128876   1.000000
  133       -3.090717   1.000000
  134       -3.070907   1.000000
  135       -3.070817   1.000000
  136       -3.070640   1.000000
  137       -3.067438   1.000000
  138       -3.067323   1.000000
  139       -3.059060   1.000000
  140       -3.056442   1.000000
  141       -3.055555   1.000000
  142       -3.033395   1.000000
  143       -2.958392   1.000000
  144       -2.958337   1.000000
  145       -2.957276   1.000000
  146       -2.956970   1.000000
  147       -2.851751   1.000000
  148       -2.850989   1.000000
  149       -2.843991   1.000000
  150       -2.843625   1.000000
  151       -2.839939   1.000000
  152       -2.839727   1.000000
  153       -2.835214   1.000000
  154       -2.834354   1.000000
  155       -2.743778   1.000000
  156       -2.743449   1.000000
  157       -2.740176   1.000000
  158       -2.739854   1.000000
  159       -2.716007   1.000000
  160       -2.715173   1.000000
  161       -2.711642   1.000000
  162       -2.707476   1.000000
  163       -2.706172   1.000000
  164       -2.701234   1.000000
  165       -2.701154   1.000000
  166       -2.700735   1.000000
  167       -2.634598   1.000000
  168       -2.634487   1.000000
  169       -2.634461   1.000000
  170       -2.634173   1.000000
  171       -2.629413   1.000000
  172       -2.621929   1.000000
  173       -2.621407   1.000000
  174       -2.614724   1.000000
  175       -2.612992   1.000000
  176       -2.593828   1.000000
  177       -2.563912   1.000000
  178       -2.545518   1.000000
  179       -2.523151   1.000000
  180       -2.522713   1.000000
  181       -2.518177   1.000000
  182       -2.517946   1.000000
  183       -2.466646   1.000000
  184       -2.291157   1.000000
  185       -2.290845   1.000000
  186       -2.289850   1.000000
  187       -2.283176   1.000000
  188       -2.282820   1.000000
  189       -2.277287   1.000000
  190       -2.277009   1.000000
  191       -2.271988   1.000000
  192       -2.264529   1.000000
  193       -2.240875   1.000000
  194       -2.240582   1.000000
  195       -2.234211   1.000000
  196       -2.233960   1.000000
  197       -2.231009   1.000000
  198       -2.228538   1.000000
  199       -2.227677   1.000000
  200       -2.224400   1.000000
  201       -2.150904   1.000000
  202       -2.144504   1.000000
  203       -2.141209   1.000000
  204       -2.138481   1.000000
  205       -2.102488   1.000000
  206       -2.102219   1.000000
  207       -2.099163   1.000000
  208       -2.099013   1.000000
  209       -2.094126   1.000000
  210       -2.091787   1.000000
  211       -2.066220   1.000000
  212       -2.065959   1.000000
  213       -2.063256   1.000000
  214       -2.062834   1.000000
  215       -1.865106   1.000000
  216       -1.864597   1.000000
  217       -1.856159   1.000000
  218       -1.855890   1.000000
  219       -1.854969   1.000000
  220       -1.851293   1.000000
  221       -1.848304   1.000000
  222       -1.844426   1.000000
  223       -1.797317   1.000000
  224       -1.797166   1.000000
  225       -1.796889   1.000000
  226       -1.796507   1.000000
  227       -1.767993   1.000000
  228       -1.767798   1.000000
  229       -1.766604   1.000000
  230       -1.766421   1.000000
  231       -1.759572   1.000000
  232       -1.756251   1.000000
  233       -1.755813   1.000000
  234       -1.755765   1.000000
  235       -1.755487   1.000000
  236       -1.755328   1.000000
  237       -1.754670   1.000000
  238       -1.750809   1.000000
  239       -1.750737   1.000000
  240       -1.750683   1.000000
  241       -1.750310   1.000000
  242       -1.741476   1.000000
  243       -1.741030   1.000000
  244       -1.740162   1.000000
  245       -1.724026   1.000000
  246       -1.718354   1.000000
  247       -1.717758   1.000000
  248       -1.707179   1.000000
  249       -1.586683   1.000000
  250       -1.586541   1.000000
  251       -1.583444   1.000000
  252       -1.583372   1.000000
  253       -1.569921   1.000000
  254       -1.569739   1.000000
  255       -1.569127   1.000000
  256       -1.569009   1.000000
  257       -1.520250   1.000000
  258       -1.520095   1.000000
  259       -1.515926   1.000000
  260       -1.515829   1.000000
  261       -1.466871   1.000000
  262       -1.464828   1.000000
  263       -1.444833   1.000000
  264       -1.444660   1.000000
  265       -1.438627   1.000000
  266       -1.438514   1.000000
  267       -1.378839   1.000000
  268       -1.378699   1.000000
  269       -1.374985   1.000000
  270       -1.374531   1.000000
  271       -1.118875   1.000000
  272       -1.090116   1.000000
  273       -1.089822   1.000000
  274       -1.086920   1.000000
  275       -1.086620   1.000000
  276       -0.977628   1.000000
  277       -0.969729   1.000000
  278       -0.953912   1.000000
  279       -0.952931   1.000000
  280       -0.946265   1.000000
  281       -0.946066   1.000000
  282       -0.942430   1.000000
  283       -0.942103   1.000000
  284       -0.940778   1.000000
  285       -0.940632   1.000000
  286       -0.937811   1.000000
  287       -0.937594   1.000000
  288       -0.931065   1.000000
  289       -0.929686   1.000000
  290       -0.923973   1.000000
  291       -0.923807   1.000000
  292       -0.923612   1.000000
  293       -0.920352   1.000000
  294       -0.913821   1.000000
  295       -0.896025   1.000000
  296       -0.895651   1.000000
  297       -0.895218   1.000000
  298       -0.887438   1.000000
  299       -0.885518   1.000000
  300       -0.883731   1.000000
  301       -0.877463   1.000000
  302       -0.877058   1.000000
  303       -0.875397   1.000000
  304       -0.862554   1.000000
  305       -0.827616   1.000000
  306       -0.827438   1.000000
  307       -0.827113   1.000000
  308       -0.825719   1.000000
  309       -0.770150   1.000000
  310       -0.770127   1.000000
  311       -0.768753   1.000000
  312       -0.768563   1.000000
  313       -0.744091   1.000000
  314       -0.743783   1.000000
  315       -0.743094   1.000000
  316       -0.741903   1.000000
  317       -0.587062   1.000000
  318       -0.586991   1.000000
  319       -0.570692   1.000000
  320       -0.570166   1.000000
  321       -0.568116   1.000000
  322       -0.567554   1.000000
  323       -0.562990   1.000000
  324       -0.560539   1.000000
  325       -0.547940   1.000000
  326       -0.545886   1.000000
  327       -0.498841   1.000000
  328       -0.498250   1.000000
  329       -0.494390   1.000000
  330       -0.494061   1.000000
  331       -0.491816   1.000000
  332       -0.491433   1.000000
  333       -0.483366   1.000000
  334       -0.483340   1.000000
  335       -0.476907   1.000000
  336       -0.471572   1.000000
  337       -0.471148   1.000000
  338       -0.464250   1.000000
  339       -0.444417   1.000000
  340       -0.418361   1.000000
  341       -0.418001   1.000000
  342       -0.417266   1.000000
  343       -0.416416   1.000000
  344       -0.395349   1.000000
  345       -0.395065   1.000000
  346       -0.394483   1.000000
  347       -0.394158   1.000000
  348       -0.392175   1.000000
  349       -0.390487   1.000000
  350       -0.389651   1.000000
  351       -0.388728   1.000000
  352       -0.384849   1.000000
  353       -0.384666   1.000000
  354       -0.382171   1.000000
  355       -0.381990   1.000000
  356       -0.368137   1.000000
  357       -0.353466   1.000000
  358       -0.342971   1.000000
  359       -0.342338   1.000000
  360       -0.332148   1.000000
  361       -0.307655   1.000000
  362       -0.211482   1.000000
  363       -0.202238   1.000000
  364       -0.200137   1.000000
  365       -0.199356   1.000000
  366       -0.198896   1.000000
  367       -0.195509   1.000000
  368       -0.194385   1.000000
  369       -0.189792   1.000000
  370       -0.143993   1.000000
  371       -0.143197   1.000000
  372       -0.140695   1.000000
  373       -0.138893   1.000000
  374       -0.084941   1.000000
  375       -0.069975   1.000000
  376       -0.068986   1.000000
  377       -0.064303   1.000000
  378        0.025776   1.000000
  379        0.195397   1.000000
  380        0.195744   1.000000
  381        0.196592   1.000000
  382        0.196989   1.000000
  383        0.197076   1.000000
  384        0.197242   1.000000
  385        0.200297   1.000000
  386        0.201362   1.000000
  387        0.213659   1.000000
  388        0.213952   1.000000
  389        0.214416   1.000000
  390        0.214660   1.000000
  391        0.329332   1.000000
  392        0.342345   1.000000
  393        0.364524   1.000000
  394        0.379274   1.000000
  395        0.384695   1.000000
  396        0.392910   1.000000
  397        0.394851   1.000000
  398        0.398114   1.000000
  399        0.420693   1.000000
  400        0.421798   1.000000
  401        0.445581   1.000000
  402        0.446030   1.000000
  403        0.446090   1.000000
  404        0.446509   1.000000
  405        0.460021   1.000000
  406        0.460446   1.000000
  407        0.460540   1.000000
  408        0.460600   1.000000
  409        0.471826   1.000000
  410        0.494975   1.000000
  411        0.495266   1.000000
  412        0.496436   1.000000
  413        0.496768   1.000000
  414        0.566825   1.000000
  415        0.577254   1.000000
  416        0.577977   1.000000
  417        0.589803   1.000000
  418        0.605900   1.000000
  419        0.606073   1.000000
  420        0.606466   1.000000
  421        0.606837   1.000000
  422        0.737722   1.000000
  423        0.742475   1.000000
  424        0.898773   1.000000
  425        0.939303   1.000000
  426        0.939873   1.000000
  427        0.950397   1.000000
  428        0.950513   1.000000
  429        0.956761   1.000000
  430        0.957061   1.000000
  431        0.970389   1.000000
  432        0.970554   1.000000
  433        0.985964   1.000000
  434        0.986108   1.000000
  435        0.986207   1.000000
  436        0.986598   1.000000
  437        0.998811   1.000000
  438        1.126358   1.000000
  439        1.134598   1.000000
  440        1.136491   1.000000
  441        1.144314   1.000000
  442        1.145936   1.000000
  443        1.147340   1.000000
  444        1.164724   1.000000
  445        1.165550   1.000000
  446        1.240390   1.000000
  447        1.254443   1.000000
  448        1.334896   1.000000
  449        1.334906   1.000000
  450        1.335436   1.000000
  451        1.344457   1.000000
  452        1.347250   1.000000
  453        1.376570   1.000000
  454        1.384107   1.000000
  455        1.385612   1.000000
  456        1.400492   1.000000
  457        1.421441   0.999999
  458        1.439144   0.999995
  459        1.439538   0.999995
  460        1.441787   0.999994
  461        1.443089   0.999993
  462        1.483946   0.999920
  463        1.485279   0.999913
  464        1.485732   0.999911
  465        1.492767   0.999869
  466        1.494556   0.999856
  467        1.498450   0.999824
  468        1.500817   0.999792
  469        1.507580   0.999713
  470        1.620911   0.965845
  471        1.620965   0.965650
  472        1.629944   0.955106
  473        1.629951   0.955038
  474        1.634251   0.951494
  475        1.635056   0.950198
  476        1.642236   0.940066
  477        1.643142   0.938010
  478        1.672881   0.872162
  479        1.676970   0.859566
  480        1.678587   0.837799
  481        1.687658   0.800940
  482        1.950719   0.002125
  483        1.953339   0.002082
  484        1.955949   0.001974
  485        1.956911   0.001850
  486        1.989170   0.000337
  487        1.990479   0.000312
  488        2.007753   0.000160
  489        2.007814   0.000159
  490        2.020661   0.000068
  491        2.020728   0.000068
  492        2.022254   0.000063
  493        2.022663   0.000062
  494        2.033395   0.000028
  495        2.033654   0.000027
  496        2.046437   0.000017
  497        2.047658   0.000015
  498        2.075368   0.000002
  499        2.084964   0.000001
  500        2.086050   0.000001
  501        2.107901   0.000000
  502        2.150218   0.000000
  503        2.173075   0.000000
  504        2.430383   0.000000
  505        2.440376   0.000000
  506        2.468669   0.000000
  507        2.533246   0.000000
  508        2.678462   0.000000
  509        2.681573   0.000000
  510        2.682059   0.000000
  511        2.688050   0.000000
  512        2.867528   0.000000
  513        2.872300   0.000000
  514        2.880035   0.000000
  515        2.884573   0.000000
  516        3.257519   0.000000
  517        3.292242   0.000000
  518        3.347391   0.000000
  519        3.846602   0.000000
  520        3.847033   0.000000
  521        3.847126   0.000000
  522        3.847499   0.000000
  523        3.997361   0.000000
  524        3.997437   0.000000
  525        3.998313   0.000000
  526        3.998396   0.000000
  527        4.034509   0.000000
  528        4.035876   0.000000
  529        4.060551   0.000000
  530        4.061497   0.000000
  531        4.071971   0.000000
  532        4.072390   0.000000
  533        4.072856   0.000000
  534        4.074336   0.000000
  535        4.267703   0.000000
  536        4.635971   0.000000
  537        4.636030   0.000000
  538        4.638381   0.000000
  539        4.638533   0.000000
  540        4.653733   0.000000
  541        4.654022   0.000000
  542        4.656722   0.000000
  543        4.657045   0.000000
  544        5.115993   0.000000
  545        5.116013   0.000000
  546        5.507122   0.000000
  547        5.507169   0.000000
  548        5.507828   0.000000
  549        5.507911   0.000000
  550        5.514014   0.000000
  551        5.514068   0.000000
  552        5.514843   0.000000
  553        5.514916   0.000000
  554        5.686917   0.000000
  555        5.688115   0.000000
  556        5.688634   0.000000
  557        5.689987   0.000000
  558        6.160111   0.000000
  559        6.160433   0.000000
  560        6.160817   0.000000
  561        6.195541   0.000000
  562        6.457438   0.000000
  563        6.470795   0.000000
  564        6.473007   0.000000
  565        6.479189   0.000000
  566        6.489971   0.000000
  567        6.503967   0.000000
  568        6.559000   0.000000
  569        6.620847   0.000000
  570        6.871888   0.000000
  571        6.901183   0.000000
  572        7.073650   0.000000
  573        7.209258   0.000000
  574        7.253289   0.000000
  575        7.370936   0.000000
  576        7.535177   0.000000
