       N       E                     dE             d eps       ncg     rms          ort
SDA:   1    -0.640799224451E+03   -0.64080E+03    0.00000E+00   576   0.674E+00 0.000E+00
CGA:   2    -0.640808835653E+03   -0.96112E-02   -0.96189E-02   576   0.253E-02-0.639E-03
CGA:   3    -0.640808968560E+03   -0.13291E-03   -0.13264E-03   576   0.750E-03-0.276E-05
CGA:   4    -0.640809077176E+03   -0.10862E-03   -0.10869E-03   576   0.709E-03 0.151E-05
CGA:   5    -0.640809106662E+03   -0.29486E-04   -0.29390E-04   576   0.111E-02 0.184E-05
CGA:   6    -0.640809248225E+03   -0.14156E-03   -0.14196E-03   576   0.514E-03-0.263E-06
CGA:   7    -0.640809319024E+03   -0.70799E-04   -0.70771E-04   576   0.328E-03-0.906E-06
CGA:   8    -0.640809346155E+03   -0.27131E-04   -0.27173E-04   576   0.780E-03-0.652E-06
CGA:   9    -0.640809372520E+03   -0.26365E-04   -0.26248E-04   576   0.239E-03 0.251E-05
CGA:  10    -0.640809406010E+03   -0.33490E-04   -0.33511E-04   576   0.216E-03 0.103E-05
CGA:  11    -0.640809425137E+03   -0.19127E-04   -0.19187E-04   576   0.103E-03 0.856E-06
CGA:  12    -0.640809442681E+03   -0.17544E-04   -0.17536E-04   576   0.972E-04 0.611E-06
CGA:  13    -0.640809447218E+03   -0.45373E-05   -0.45137E-05   576   0.172E-03-0.267E-06
CGA:  14    -0.640809463271E+03   -0.16053E-04   -0.15964E-04   576   0.606E-04-0.156E-05
CGA:  15    -0.640809477777E+03   -0.14505E-04   -0.14696E-04   576   0.940E-04-0.194E-05
CGA:  16    -0.640809483494E+03   -0.57175E-05   -0.57000E-05   576   0.212E-03-0.141E-06
CGA:  17    -0.640809494940E+03   -0.11446E-04   -0.11481E-04   576   0.759E-04-0.841E-07
CGA:  18    -0.640809502543E+03   -0.76032E-05   -0.76322E-05   576   0.756E-04 0.719E-06
   1 F= -.64080950E+03 E0= -.64068379E+03  d E =-.251433E+00
