Au\(1\0\0)                              
   1.00000000000000     
    11.3060801559000002    0.0000000000000000    0.0000000000000000
     0.0000000000000000   11.3060801559000002    0.0000000000000000
     0.0000000000000000    0.0000000000000000   24.6953447088999987
   Pt
    96
Selective dynamics
Direct
  0.0010699999999986  0.9996299740000012  0.1170300019999999   F   F   F
  0.0010778955716033  0.9996172889518162  0.2794144828361422   T   T   T
  0.0010627339798656  0.9996414532750939  0.4396071939654863   T   T   T
  0.1260699930000015  0.1246299969999995  0.0360900009999980   F   F   F
  0.1261174506070682  0.1245834682880429  0.1978449963095816   T   T   T
  0.1260512774879602  0.1246403421024252  0.3602129678650434   T   T   T
  0.2510699930000015  0.9996299740000012  0.1170300019999999   F   F   F
  0.2510776801090890  0.9996172697974771  0.2794137696151555   T   T   T
  0.2510619647210375  0.9996414699997586  0.4396080005401156   T   T   T
  0.3760699930000015  0.1246299969999995  0.0360900009999980   F   F   F
  0.3761165029018326  0.1245834400500378  0.1978440719066964   T   T   T
  0.3760515867867757  0.1246403047313486  0.3602125321459053   T   T   T
  0.5010700229999969  0.9996299740000012  0.1170300019999999   F   F   F
  0.5010776187181456  0.9996173010911263  0.2794133987655503   T   T   T
  0.5010631168826001  0.9996414447476817  0.4396086362375248   T   T   T
  0.6260700229999969  0.1246299969999995  0.0360900009999980   F   F   F
  0.6261143986635029  0.1245834592407650  0.1978444120472180   T   T   T
  0.6260530193442675  0.1246403266939276  0.3602126181539331   T   T   T
  0.7510700229999969  0.9996299740000012  0.1170300019999999   F   F   F
  0.7510779550879464  0.9996173136638536  0.2794141127519649   T   T   T
  0.7510639642626590  0.9996414304887301  0.4396078316652554   T   T   T
  0.8760700229999969  0.1246299969999995  0.0360900009999980   F   F   F
  0.8761153415039198  0.1245834875885029  0.1978453088409344   T   T   T
  0.8760527538353114  0.1246403536960670  0.3602130483866680   T   T   T
  0.0010699999999986  0.2496300039999966  0.1170300019999999   F   F   F
  0.0010778544367400  0.2496171332744628  0.2794148332034958   T   T   T
  0.0010627538142515  0.2496410076400177  0.4396066646291433   T   T   T
  0.1260699930000015  0.3746300039999966  0.0360900009999980   F   F   F
  0.1261174149723501  0.3745843180702044  0.1978451475417144   T   T   T
  0.1260512425212773  0.3746394979457133  0.3602130644874850   T   T   T
  0.2510699930000015  0.2496300039999966  0.1170300019999999   F   F   F
  0.2510776601544967  0.2496170911022912  0.2794141077445684   T   T   T
  0.2510619499280056  0.2496410022953111  0.4396074927400879   T   T   T
  0.3760699930000015  0.3746300039999966  0.0360900009999980   F   F   F
  0.3761165005696834  0.3745843185822083  0.1978442426958311   T   T   T
  0.3760515813934633  0.3746394921237219  0.3602126210877279   T   T   T
  0.5010700229999969  0.2496300039999966  0.1170300019999999   F   F   F
  0.5010776694223293  0.2496170981852769  0.2794137288504020   T   T   T
  0.5010630996344081  0.2496409904303944  0.4396080869523649   T   T   T
  0.6260700229999969  0.3746300039999966  0.0360900009999980   F   F   F
  0.6261144283810567  0.3745843221564089  0.1978445953191525   T   T   T
  0.6260530545820057  0.3746395049968189  0.3602126754812935   T   T   T
  0.7510700229999969  0.2496300039999966  0.1170300019999999   F   F   F
  0.7510779608486149  0.2496171364865374  0.2794144476731356   T   T   T
  0.7510639760722235  0.2496409941493427  0.4396072918688516   T   T   T
  0.8760700229999969  0.3746300039999966  0.0360900009999980   F   F   F
  0.8761153512271916  0.3745843269322578  0.1978454736459973   T   T   T
  0.8760527623194746  0.3746395176826717  0.3602131114706730   T   T   T
  0.0010699999999986  0.4996300039999966  0.1170300019999999   F   F   F
  0.0010778387563435  0.4996169932667839  0.2794146490490538   T   T   T
  0.0010627404317738  0.4996402836978889  0.4396070195029461   T   T   T
  0.1260699930000015  0.6246299740000012  0.0360900009999980   F   F   F
  0.1261174269659568  0.6245847545321589  0.1978447309187139   T   T   T
  0.1260512644264903  0.6246393001831787  0.3602127882555307   T   T   T
  0.2510699930000015  0.4996300039999966  0.1170300019999999   F   F   F
  0.2510776523749073  0.4996170075642789  0.2794139217271223   T   T   T
  0.2510619476074388  0.4996402622973486  0.4396078360331212   T   T   T
  0.3760699930000015  0.6246299740000012  0.0360900009999980   F   F   F
  0.3761165028908162  0.6245847814304719  0.1978437953456371   T   T   T
  0.3760515768648896  0.6246393353584190  0.3602123707582390   T   T   T
  0.5010700229999969  0.4996300039999966  0.1170300019999999   F   F   F
  0.5010776667181301  0.4996169887478746  0.2794135432390765   T   T   T
  0.5010631124967345  0.4996402826952274  0.4396084624442815   T   T   T
  0.6260700229999969  0.6246299740000012  0.0360900009999980   F   F   F
  0.6261144199076705  0.6245847615250251  0.1978441124347194   T   T   T
  0.6260530392266279  0.6246393004432174  0.3602124607323831   T   T   T
  0.7510700229999969  0.4996300039999966  0.1170300019999999   F   F   F
  0.7510779874486326  0.4996169766020607  0.2794142732475234   T   T   T
  0.7510639783472538  0.4996403054111453  0.4396076505202458   T   T   T
  0.8760700229999969  0.6246299740000012  0.0360900009999980   F   F   F
  0.8761153403424374  0.6245847403983614  0.1978450259369799   T   T   T
  0.8760527574884447  0.6246392712756504  0.3602128671555351   T   T   T
  0.0010699999999986  0.7496299740000012  0.1170300019999999   F   F   F
  0.0010778779669517  0.7496171924578912  0.2794142937491701   T   T   T
  0.0010627199513371  0.7496407139583977  0.4396075345915367   T   T   T
  0.1260699930000015  0.8746299740000012  0.0360900009999980   F   F   F
  0.1261174630193069  0.8745838757709136  0.1978445814293234   T   T   T
  0.1260513043197865  0.8746401305128545  0.3602126797446604   T   T   T
  0.2510699930000015  0.7496299740000012  0.1170300019999999   F   F   F
  0.2510776692132080  0.7496172393272422  0.2794135788704808   T   T   T
  0.2510619566522763  0.7496407228757958  0.4396083640813285   T   T   T
  0.3760699930000015  0.8746299740000012  0.0360900009999980   F   F   F
  0.3761164995869126  0.8745838933683998  0.1978436256833585   T   T   T
  0.3760515796829645  0.8746401313190671  0.3602122738605739   T   T   T
  0.5010700229999969  0.7496299740000012  0.1170300019999999   F   F   F
  0.5010776163511557  0.7496172209269837  0.2794132139111682   T   T   T
  0.5010631321556410  0.7496407330996149  0.4396090031087572   T   T   T
  0.6260700229999969  0.8746299740000012  0.0360900009999980   F   F   F
  0.6261143918768508  0.8745838785736034  0.1978439268392781   T   T   T
  0.6260530064308063  0.8746401372084037  0.3602123990407631   T   T   T
  0.7510700229999969  0.7496299740000012  0.1170300019999999   F   F   F
  0.7510779844539555  0.7496171838851708  0.2794139243726927   T   T   T
  0.7510639772386301  0.7496407297272305  0.4396082041755693   T   T   T
  0.8760700229999969  0.8746299740000012  0.0360900009999980   F   F   F
  0.8761153324090509  0.8745838616650813  0.1978448605556367   T   T   T
  0.8760527494294573  0.8746401246580496  0.3602127957235540   T   T   T
 
  0.00000000E+00  0.00000000E+00  0.00000000E+00
  0.00000000E+00  0.00000000E+00  0.00000000E+00
  0.00000000E+00  0.00000000E+00  0.00000000E+00
  0.00000000E+00  0.00000000E+00  0.00000000E+00
  0.00000000E+00  0.00000000E+00  0.00000000E+00
  0.00000000E+00  0.00000000E+00  0.00000000E+00
  0.00000000E+00  0.00000000E+00  0.00000000E+00
  0.00000000E+00  0.00000000E+00  0.00000000E+00
  0.00000000E+00  0.00000000E+00  0.00000000E+00
  0.00000000E+00  0.00000000E+00  0.00000000E+00
  0.00000000E+00  0.00000000E+00  0.00000000E+00
  0.00000000E+00  0.00000000E+00  0.00000000E+00
  0.00000000E+00  0.00000000E+00  0.00000000E+00
  0.00000000E+00  0.00000000E+00  0.00000000E+00
  0.00000000E+00  0.00000000E+00  0.00000000E+00
  0.00000000E+00  0.00000000E+00  0.00000000E+00
  0.00000000E+00  0.00000000E+00  0.00000000E+00
  0.00000000E+00  0.00000000E+00  0.00000000E+00
  0.00000000E+00  0.00000000E+00  0.00000000E+00
  0.00000000E+00  0.00000000E+00  0.00000000E+00
  0.00000000E+00  0.00000000E+00  0.00000000E+00
  0.00000000E+00  0.00000000E+00  0.00000000E+00
  0.00000000E+00  0.00000000E+00  0.00000000E+00
  0.00000000E+00  0.00000000E+00  0.00000000E+00
  0.00000000E+00  0.00000000E+00  0.00000000E+00
  0.00000000E+00  0.00000000E+00  0.00000000E+00
  0.00000000E+00  0.00000000E+00  0.00000000E+00
  0.00000000E+00  0.00000000E+00  0.00000000E+00
  0.00000000E+00  0.00000000E+00  0.00000000E+00
  0.00000000E+00  0.00000000E+00  0.00000000E+00
  0.00000000E+00  0.00000000E+00  0.00000000E+00
  0.00000000E+00  0.00000000E+00  0.00000000E+00
  0.00000000E+00  0.00000000E+00  0.00000000E+00
  0.00000000E+00  0.00000000E+00  0.00000000E+00
  0.00000000E+00  0.00000000E+00  0.00000000E+00
  0.00000000E+00  0.00000000E+00  0.00000000E+00
  0.00000000E+00  0.00000000E+00  0.00000000E+00
  0.00000000E+00  0.00000000E+00  0.00000000E+00
  0.00000000E+00  0.00000000E+00  0.00000000E+00
  0.00000000E+00  0.00000000E+00  0.00000000E+00
  0.00000000E+00  0.00000000E+00  0.00000000E+00
  0.00000000E+00  0.00000000E+00  0.00000000E+00
  0.00000000E+00  0.00000000E+00  0.00000000E+00
  0.00000000E+00  0.00000000E+00  0.00000000E+00
  0.00000000E+00  0.00000000E+00  0.00000000E+00
  0.00000000E+00  0.00000000E+00  0.00000000E+00
  0.00000000E+00  0.00000000E+00  0.00000000E+00
  0.00000000E+00  0.00000000E+00  0.00000000E+00
  0.00000000E+00  0.00000000E+00  0.00000000E+00
  0.00000000E+00  0.00000000E+00  0.00000000E+00
  0.00000000E+00  0.00000000E+00  0.00000000E+00
  0.00000000E+00  0.00000000E+00  0.00000000E+00
  0.00000000E+00  0.00000000E+00  0.00000000E+00
  0.00000000E+00  0.00000000E+00  0.00000000E+00
  0.00000000E+00  0.00000000E+00  0.00000000E+00
  0.00000000E+00  0.00000000E+00  0.00000000E+00
  0.00000000E+00  0.00000000E+00  0.00000000E+00
  0.00000000E+00  0.00000000E+00  0.00000000E+00
  0.00000000E+00  0.00000000E+00  0.00000000E+00
  0.00000000E+00  0.00000000E+00  0.00000000E+00
  0.00000000E+00  0.00000000E+00  0.00000000E+00
  0.00000000E+00  0.00000000E+00  0.00000000E+00
  0.00000000E+00  0.00000000E+00  0.00000000E+00
  0.00000000E+00  0.00000000E+00  0.00000000E+00
  0.00000000E+00  0.00000000E+00  0.00000000E+00
  0.00000000E+00  0.00000000E+00  0.00000000E+00
  0.00000000E+00  0.00000000E+00  0.00000000E+00
  0.00000000E+00  0.00000000E+00  0.00000000E+00
  0.00000000E+00  0.00000000E+00  0.00000000E+00
  0.00000000E+00  0.00000000E+00  0.00000000E+00
  0.00000000E+00  0.00000000E+00  0.00000000E+00
  0.00000000E+00  0.00000000E+00  0.00000000E+00
  0.00000000E+00  0.00000000E+00  0.00000000E+00
  0.00000000E+00  0.00000000E+00  0.00000000E+00
  0.00000000E+00  0.00000000E+00  0.00000000E+00
  0.00000000E+00  0.00000000E+00  0.00000000E+00
  0.00000000E+00  0.00000000E+00  0.00000000E+00
  0.00000000E+00  0.00000000E+00  0.00000000E+00
  0.00000000E+00  0.00000000E+00  0.00000000E+00
  0.00000000E+00  0.00000000E+00  0.00000000E+00
  0.00000000E+00  0.00000000E+00  0.00000000E+00
  0.00000000E+00  0.00000000E+00  0.00000000E+00
  0.00000000E+00  0.00000000E+00  0.00000000E+00
  0.00000000E+00  0.00000000E+00  0.00000000E+00
  0.00000000E+00  0.00000000E+00  0.00000000E+00
  0.00000000E+00  0.00000000E+00  0.00000000E+00
  0.00000000E+00  0.00000000E+00  0.00000000E+00
  0.00000000E+00  0.00000000E+00  0.00000000E+00
  0.00000000E+00  0.00000000E+00  0.00000000E+00
  0.00000000E+00  0.00000000E+00  0.00000000E+00
  0.00000000E+00  0.00000000E+00  0.00000000E+00
  0.00000000E+00  0.00000000E+00  0.00000000E+00
  0.00000000E+00  0.00000000E+00  0.00000000E+00
  0.00000000E+00  0.00000000E+00  0.00000000E+00
  0.00000000E+00  0.00000000E+00  0.00000000E+00
  0.00000000E+00  0.00000000E+00  0.00000000E+00
