 DBCSR| CPU Multiplication driver                                           XSMM (U)
 DBCSR| Multrec recursion limit                                              512 (U)
 DBCSR| Multiplication stack size                                           1000 (D)
 DBCSR| Maximum elements for images                                    UNLIMITED (U)
 DBCSR| Multiplicative factor virtual images                                   1 (U)
 DBCSR| Use multiplication densification                                       T (D)
 DBCSR| Multiplication size stacks                                             3 (U)
 DBCSR| Use memory pool for CPU allocation                                     F (U)
 DBCSR| Number of 3D layers                                               SINGLE (U)
 DBCSR| Use MPI memory allocation                                              F (U)
 DBCSR| Use RMA algorithm                                                      F (U)
 DBCSR| Use Communication thread                                               T (U)
 DBCSR| Communication thread load                                             87 (D)
 DBCSR| MPI: My process id                                                     0
 DBCSR| MPI: Number of processes                                              32
 DBCSR| OMP: Current number of threads                                         1
 DBCSR| OMP: Max number of threads                                             1
 DBCSR| Split modifier for TAS multiplication algorithm                  1.0E+00 (U)


  **** **** ******  **  PROGRAM STARTED AT               2026-06-23 19:19:23.215
 ***** ** ***  *** **   PROGRAM STARTED ON                                  cu04
 **    ****   ******    PROGRAM STARTED BY                                 rudin
 ***** **    ** ** **   PROGRAM PROCESS ID                               3053505
  **** **  *******  **  PROGRAM STARTED IN /home/rudin/code/kylin-pbc/art/exampl
                                           e/extern/Si-HSE06-gamma-cp2k-ADMM

 CP2K| version string:                                       CP2K version 2024.3
 CP2K| source code revision number:                                  git:6712648
 CP2K| cp2kflags: omp libint fftw3 libxc libgrpp elpa parallel scalapack mpi_f08
 CP2K|             cosma xsmm plumed2 spglib mkl libvori libbqb
 CP2K| is freely available from                            https://www.cp2k.org/
 CP2K| Program compiled at            2026年 01月 07日 星期三 01:43:54 CST
 CP2K| Program compiled on                                                  mu01
 CP2K| Program compiled for                                                local
 CP2K| Data directory path    /software/Applications/cp2k/cp2k-2024.3-oneapi-202
 CP2K| Input file name                                                  cp2k.inp
 
 GLOBAL| Force Environment number                                              1
 GLOBAL| Basis set file name                                        BASIS_MOLOPT
 GLOBAL| Potential file name                                      GTH_POTENTIALS
 GLOBAL| MM Potential file name                                     MM_POTENTIAL
 GLOBAL| Coordinate file name                                      __STD_INPUT__
 GLOBAL| Method name                                                        CP2K
 GLOBAL| Project name                                             Si-HSE06-gamma
 GLOBAL| Run type                                                         ENERGY
 GLOBAL| FFT library                                                       FFTW3
 GLOBAL| Diagonalization library                                            ELPA
 GLOBAL| DGEMM library                                                      BLAS
 GLOBAL| Minimum number of eigenvectors for ELPA usage                        16
 GLOBAL| Orthonormality check for eigenvectors                          DISABLED
 GLOBAL| Matrix multiplication library                                     COSMA
 GLOBAL| All-to-all communication in single precision                          F
 GLOBAL| FFTs using library dependent lengths                                  F
 GLOBAL| Grid backend                                                       AUTO
 GLOBAL| Global print level                                               MEDIUM
 GLOBAL| MPI I/O enabled                                                       T
 GLOBAL| Total number of message passing processes                            32
 GLOBAL| Number of threads for this process                                    1
 GLOBAL| This output is from process                                           0
 GLOBAL| Stack size for threads created by OpenMP (OMP_STACKSIZE)        default
 GLOBAL| CPU model name                              INTEL(R) XEON(R) GOLD 6544Y
 GLOBAL| CPUID                                                              1003

 MEMORY| system memory details [Kb]
 MEMORY|                        rank 0           min           max       average
 MEMORY| MemTotal            527978088     527978088     527978088     527978088
 MEMORY| MemFree             250492836     250492836     250492836     250492836
 MEMORY| Buffers              13540508      13540508      13540508      13540508
 MEMORY| Cached              245728896     245728896     245728896     245728896
 MEMORY| Slab                 11697196      11697196      11697196      11697196
 MEMORY| SReclaimable          9474088       9474088       9474088       9474088
 MEMORY| MemLikelyFree       519236328     519236328     519236328     519236328


 *** Fundamental physical constants (SI units) ***

 *** Literature: B. J. Mohr and B. N. Taylor,
 ***             CODATA recommended values of the fundamental physical
 ***             constants: 2006, Web Version 5.1
 ***             http://physics.nist.gov/constants

 Speed of light in vacuum [m/s]                             2.99792458000000E+08
 Magnetic constant or permeability of vacuum [N/A**2]       1.25663706143592E-06
 Electric constant or permittivity of vacuum [F/m]          8.85418781762039E-12
 Planck constant (h) [J*s]                                  6.62606896000000E-34
 Planck constant (h-bar) [J*s]                              1.05457162825177E-34
 Elementary charge [C]                                      1.60217648700000E-19
 Electron mass [kg]                                         9.10938215000000E-31
 Electron g factor [ ]                                     -2.00231930436220E+00
 Proton mass [kg]                                           1.67262163700000E-27
 Fine-structure constant                                    7.29735253760000E-03
 Rydberg constant [1/m]                                     1.09737315685270E+07
 Avogadro constant [1/mol]                                  6.02214179000000E+23
 Boltzmann constant [J/K]                                   1.38065040000000E-23
 Atomic mass unit [kg]                                      1.66053878200000E-27
 Bohr radius [m]                                            5.29177208590000E-11

 *** Conversion factors ***

 [u] -> [a.u.]                                              1.82288848426455E+03
 [Angstrom] -> [Bohr] = [a.u.]                              1.88972613288564E+00
 [a.u.] = [Bohr] -> [Angstrom]                              5.29177208590000E-01
 [a.u.] -> [s]                                              2.41888432650478E-17
 [a.u.] -> [fs]                                             2.41888432650478E-02
 [a.u.] -> [J]                                              4.35974393937059E-18
 [a.u.] -> [N]                                              8.23872205491840E-08
 [a.u.] -> [K]                                              3.15774647902944E+05
 [a.u.] -> [kJ/mol]                                         2.62549961709828E+03
 [a.u.] -> [kcal/mol]                                       6.27509468713739E+02
 [a.u.] -> [Pa]                                             2.94210107994716E+13
 [a.u.] -> [bar]                                            2.94210107994716E+08
 [a.u.] -> [atm]                                            2.90362800883016E+08
 [a.u.] -> [eV]                                             2.72113838565563E+01
 [a.u.] -> [Hz]                                             6.57968392072181E+15
 [a.u.] -> [1/cm] (wave numbers)                            2.19474631370540E+05
 [a.u./Bohr**2] -> [1/cm]                                   5.14048714338585E+03
 

 CELL_TOP| Volume [angstrom^3]:                                        40.047869
 CELL_TOP| Vector a [angstrom     0.000     2.716     2.716   |a| =     3.840297
 CELL_TOP| Vector b [angstrom     2.716     0.000     2.716   |b| =     3.840297
 CELL_TOP| Vector c [angstrom     2.716     2.716     0.000   |c| =     3.840297
 CELL_TOP| Angle (b,c), alpha [degree]:                                60.000000
 CELL_TOP| Angle (a,c), beta  [degree]:                                60.000000
 CELL_TOP| Angle (a,b), gamma [degree]:                                60.000000
 CELL_TOP| Numerically orthorhombic:                                          NO
 CELL_TOP| Periodicity                                                       XYZ
 
 GENERATE|  Preliminary Number of Bonds generated:                             0
 GENERATE|  Achieved consistency in connectivity generation.

 CELL| Volume [angstrom^3]:                                            40.047869
 CELL| Vector a [angstrom]:       0.000     2.716     2.716   |a| =     3.840297
 CELL| Vector b [angstrom]:       2.716     0.000     2.716   |b| =     3.840297
 CELL| Vector c [angstrom]:       2.716     2.716     0.000   |c| =     3.840297
 CELL| Angle (b,c), alpha [degree]:                                    60.000000
 CELL| Angle (a,c), beta  [degree]:                                    60.000000
 CELL| Angle (a,b), gamma [degree]:                                    60.000000
 CELL| Numerically orthorhombic:                                              NO
 CELL| Periodicity                                                           XYZ

 CELL_REF| Volume [angstrom^3]:                                        40.047869
 CELL_REF| Vector a [angstrom     0.000     2.716     2.716   |a| =     3.840297
 CELL_REF| Vector b [angstrom     2.716     0.000     2.716   |b| =     3.840297
 CELL_REF| Vector c [angstrom     2.716     2.716     0.000   |c| =     3.840297
 CELL_REF| Angle (b,c), alpha [degree]:                                60.000000
 CELL_REF| Angle (a,c), beta  [degree]:                                60.000000
 CELL_REF| Angle (a,b), gamma [degree]:                                60.000000
 CELL_REF| Numerically orthorhombic:                                          NO
 CELL_REF| Periodicity                                                       XYZ

 *******************************************************************************
 *******************************************************************************
 **                                                                           **
 **     #####                         ##              ##                      **
 **    ##   ##            ##          ##              ##                      **
 **   ##     ##                       ##            ######                    **
 **   ##     ##  ##   ##  ##   #####  ##  ##   ####   ##    #####    #####    **
 **   ##     ##  ##   ##  ##  ##      ## ##   ##      ##   ##   ##  ##   ##   **
 **   ##  ## ##  ##   ##  ##  ##      ####     ###    ##   ######   ######    **
 **    ##  ###   ##   ##  ##  ##      ## ##      ##   ##   ##       ##        **
 **     #######   #####   ##   #####  ##  ##  ####    ##    #####   ##        **
 **           ##                                                    ##        **
 **                                                                           **
 **                                                ... make the atoms dance   **
 **                                                                           **
 **            Copyright (C) by CP2K developers group (2000-2024)             **
 **                      J. Chem. Phys. 152, 194103 (2020)                    **
 **                                                                           **
 *******************************************************************************

 DFT| Spin restricted Kohn-Sham (RKS) calculation                            RKS
 DFT| Multiplicity                                                             1
 DFT| Number of spin states                                                    1
 DFT| Charge                                                                   0
 DFT| Self-interaction correction (SIC)                                       NO
 DFT| Cutoffs: density                                              1.000000E-10
 DFT|          gradient                                             1.000000E-10
 DFT|          tau                                                  1.000000E-10
 DFT|          cutoff_smoothing_range                               0.000000E+00
 DFT| XC density smoothing                                                  NONE
 DFT| XC derivatives                                                          PW

 FUNCTIONAL| PBE:
 FUNCTIONAL| J.P.Perdew, K.Burke, M.Ernzerhof, Phys. Rev. Letter, vol. 77, n 18,
 FUNCTIONAL|  pp. 3865-3868, (1996)sx=0.000sc=1.000{spin unpolarized}           
 FUNCTIONAL| XWPBE:
 FUNCTIONAL| Jochen Heyd and Gustavo E. Scuseria, J. Chem. Phys., 120, 7274 {LDA
 FUNCTIONAL|  version}                                                          


 QS| Method:                                                                 GPW
 QS| Density plane wave grid type                        NON-SPHERICAL FULLSPACE
 QS| Number of grid levels:                                                    4
 QS| Density cutoff [a.u.]:                                                300.0
 QS| Multi grid cutoff [a.u.]: 1) grid level                               300.0
 QS|                           2) grid level                               100.0
 QS|                           3) grid level                                33.3
 QS|                           4) grid level                                11.1
 QS| Grid level progression factor:                                          3.0
 QS| Relative density cutoff [a.u.]:                                        30.0
 QS| Interaction thresholds: eps_pgf_orb:                                1.0E-06
 QS|                         eps_filter_matrix:                          0.0E+00
 QS|                         eps_core_charge:                            1.0E-14
 QS|                         eps_rho_gspace:                             1.0E-12
 QS|                         eps_rho_rspace:                             1.0E-12
 QS|                         eps_gvg_rspace:                             1.0E-06
 QS|                         eps_ppl:                                    1.0E-02
 QS|                         eps_ppnl:                                   1.0E-08

 ADMM| Specific ADMM type specified                                        ADMMS
 ADMM| Density matrix purification method                                   NONE
 ADMM| Orbital projection with charge constrain
 ADMM| Use Merlot (2014) scaling model
 ADMM| eps_filter                                                0.000000000    
 ADMM| Exchange functional in correction term                            (W)PBEX



 ATOMIC KIND INFORMATION

  1. Atomic kind: Si                                    Number of atoms:       2

     Orbital Basis Set                                        DZVP-MOLOPT-SR-GTH

       Number of orbital shell sets:                                           1
       Number of orbital shells:                                               5
       Number of primitive Cartesian functions:                                4
       Number of Cartesian basis functions:                                   14
       Number of spherical basis functions:                                   13
       Norm type:                                                              2

       Normalised Cartesian orbitals:

                        Set   Shell   Orbital            Exponent    Coefficient

                          1       1    2s                1.256768       0.294045
                                                         0.506394      -0.015884
                                                         0.238884      -0.207657
                                                         0.087337      -0.036225

                          1       2    3s                1.256768      -1.532347
                                                         0.506394       0.524539
                                                         0.238884       0.025013
                                                         0.087337      -0.052203

                          1       3    3px               1.256768       0.152274
                                                         0.506394      -0.154145
                                                         0.238884      -0.115581
                                                         0.087337      -0.028372
                          1       3    3py               1.256768       0.152274
                                                         0.506394      -0.154145
                                                         0.238884      -0.115581
                                                         0.087337      -0.028372
                          1       3    3pz               1.256768       0.152274
                                                         0.506394      -0.154145
                                                         0.238884      -0.115581
                                                         0.087337      -0.028372

                          1       4    4px               1.256768       0.313378
                                                         0.506394      -0.415360
                                                         0.238884      -0.022539
                                                         0.087337       0.078473
                          1       4    4py               1.256768       0.313378
                                                         0.506394      -0.415360
                                                         0.238884      -0.022539
                                                         0.087337       0.078473
                          1       4    4pz               1.256768       0.313378
                                                         0.506394      -0.415360
                                                         0.238884      -0.022539
                                                         0.087337       0.078473

                          1       5    4dx2              1.256768       0.325879
                                                         0.506394       0.163831
                                                         0.238884       0.044076
                                                         0.087337       0.010608
                          1       5    4dxy              1.256768       0.564439
                                                         0.506394       0.283764
                                                         0.238884       0.076342
                                                         0.087337       0.018373
                          1       5    4dxz              1.256768       0.564439
                                                         0.506394       0.283764
                                                         0.238884       0.076342
                                                         0.087337       0.018373
                          1       5    4dy2              1.256768       0.325879
                                                         0.506394       0.163831
                                                         0.238884       0.044076
                                                         0.087337       0.010608
                          1       5    4dyz              1.256768       0.564439
                                                         0.506394       0.283764
                                                         0.238884       0.076342
                                                         0.087337       0.018373
                          1       5    4dz2              1.256768       0.325879
                                                         0.506394       0.163831
                                                         0.238884       0.044076
                                                         0.087337       0.010608

     Auxiliary Fit Basis Set                                              cpFIT3

       Number of orbital shell sets:                                           5
       Number of orbital shells:                                               5
       Number of primitive Cartesian functions:                                7
       Number of Cartesian basis functions:                                   14
       Number of spherical basis functions:                                   13
       Norm type:                                                              2

       Normalised Cartesian orbitals:

                        Set   Shell   Orbital            Exponent    Coefficient

                          1       1    1px               0.089490       0.069768
                          1       1    1py               0.089490       0.069768
                          1       1    1pz               0.089490       0.069768

                          2       1    1s                0.096480       0.123378

                          3       1    1s                0.246960      -0.309315
                                                         1.277560       0.429908

                          4       1    1px               0.295630       0.313983
                                                         2.202470      -0.124968
                          4       1    1py               0.295630       0.313983
                                                         2.202470      -0.124968
                          4       1    1pz               0.295630       0.313983
                                                         2.202470      -0.124968

                          5       1    1dx2              0.450000       0.406941
                          5       1    1dxy              0.450000       0.704842
                          5       1    1dxz              0.450000       0.704842
                          5       1    1dy2              0.450000       0.406941
                          5       1    1dyz              0.450000       0.704842
                          5       1    1dz2              0.450000       0.406941

     RI HFX Basis Set                                           Si-RI-AUX-cpFIT3

       Number of orbital shell sets:                                           2
       Number of orbital shells:                                              19
       Number of primitive Cartesian functions:                                7
       Number of Cartesian basis functions:                                   70
       Number of spherical basis functions:                                   61
       Norm type:                                                              2

       Normalised Cartesian orbitals:

                        Set   Shell   Orbital            Exponent    Coefficient

                          1       1    1s                3.381949       1.777401
                                                         1.878860       0.000000
                                                         1.043811       0.000000
                                                         0.579895       0.000000
                                                         0.322164       0.000000
                                                         0.178980       0.000000

                          1       2    2s                3.381949      -4.815164
                                                         1.878860       3.302892
                                                         1.043811       0.000000
                                                         0.579895       0.000000
                                                         0.322164       0.000000
                                                         0.178980       0.000000

                          1       3    3s                3.381949       7.218514
                                                         1.878860      -9.704678
                                                         1.043811       3.667693
                                                         0.579895       0.000000
                                                         0.322164       0.000000
                                                         0.178980       0.000000

                          1       4    4s                3.381949      -7.929171
                                                         1.878860      14.922211
                                                         1.043811     -11.057577
                                                         0.579895       3.167702
                                                         0.322164       0.000000
                                                         0.178980       0.000000

                          1       5    5s                3.381949       7.312486
                                                         1.878860     -16.560331
                                                         1.043811      17.180156
                                                         0.579895      -9.653519
                                                         0.322164       2.393165
                                                         0.178980       0.000000

                          1       6    6s                3.381949      -6.110175
                                                         1.878860      15.342782
                                                         1.043811     -19.154226
                                                         0.579895      15.070458
                                                         0.322164      -7.330131
                                                         0.178980       1.681102

                          1       7    2px               3.381949       6.537307
                                                         1.878860       0.000000
                                                         1.043811       0.000000
                                                         0.579895       0.000000
                                                         0.322164       0.000000
                                                         0.178980       0.000000
                          1       7    2py               3.381949       6.537307
                                                         1.878860       0.000000
                                                         1.043811       0.000000
                                                         0.579895       0.000000
                                                         0.322164       0.000000
                                                         0.178980       0.000000
                          1       7    2pz               3.381949       6.537307
                                                         1.878860       0.000000
                                                         1.043811       0.000000
                                                         0.579895       0.000000
                                                         0.322164       0.000000
                                                         0.178980       0.000000

                          1       8    3px               3.381949     -13.421219
                                                         1.878860       7.160293
                                                         1.043811       0.000000
                                                         0.579895       0.000000
                                                         0.322164       0.000000
                                                         0.178980       0.000000
                          1       8    3py               3.381949     -13.421219
                                                         1.878860       7.160293
                                                         1.043811       0.000000
                                                         0.579895       0.000000
                                                         0.322164       0.000000
                                                         0.178980       0.000000
                          1       8    3pz               3.381949     -13.421219
                                                         1.878860       7.160293
                                                         1.043811       0.000000
                                                         0.579895       0.000000
                                                         0.322164       0.000000
                                                         0.178980       0.000000

                          1       9    4px               3.381949      16.969875
                                                         1.878860     -17.063359
                                                         1.043811       5.199506
                                                         0.579895       0.000000
                                                         0.322164       0.000000
                                                         0.178980       0.000000
                          1       9    4py               3.381949      16.969875
                                                         1.878860     -17.063359
                                                         1.043811       5.199506
                                                         0.579895       0.000000
                                                         0.322164       0.000000
                                                         0.178980       0.000000
                          1       9    4pz               3.381949      16.969875
                                                         1.878860     -17.063359
                                                         1.043811       5.199506
                                                         0.579895       0.000000
                                                         0.322164       0.000000
                                                         0.178980       0.000000

                          1      10    5px               3.381949     -16.667809
                                                         1.878860      22.696658
                                                         1.043811     -13.047861
                                                         0.579895       3.098650
                                                         0.322164       0.000000
                                                         0.178980       0.000000
                          1      10    5py               3.381949     -16.667809
                                                         1.878860      22.696658
                                                         1.043811     -13.047861
                                                         0.579895       3.098650
                                                         0.322164       0.000000
                                                         0.178980       0.000000
                          1      10    5pz               3.381949     -16.667809
                                                         1.878860      22.696658
                                                         1.043811     -13.047861
                                                         0.579895       3.098650
                                                         0.322164       0.000000
                                                         0.178980       0.000000

                          1      11    6px               3.381949      14.245403
                                                         1.878860     -22.763562
                                                         1.043811      17.728616
                                                         0.579895      -7.950208
                                                         0.322164       1.666493
                                                         0.178980       0.000000
                          1      11    6py               3.381949      14.245403
                                                         1.878860     -22.763562
                                                         1.043811      17.728616
                                                         0.579895      -7.950208
                                                         0.322164       1.666493
                                                         0.178980       0.000000
                          1      11    6pz               3.381949      14.245403
                                                         1.878860     -22.763562
                                                         1.043811      17.728616
                                                         0.579895      -7.950208
                                                         0.322164       1.666493
                                                         0.178980       0.000000

                          1      12    7px               3.381949     -11.279874
                                                         1.878860      19.637060
                                                         1.043811     -17.948085
                                                         0.579895      10.908166
                                                         0.322164      -4.320501
                                                         0.178980       0.849040
                          1      12    7py               3.381949     -11.279874
                                                         1.878860      19.637060
                                                         1.043811     -17.948085
                                                         0.579895      10.908166
                                                         0.322164      -4.320501
                                                         0.178980       0.849040
                          1      12    7pz               3.381949     -11.279874
                                                         1.878860      19.637060
                                                         1.043811     -17.948085
                                                         0.579895      10.908166
                                                         0.322164      -4.320501
                                                         0.178980       0.849040

                          1      13    3dx2              3.381949      13.881991
                                                         1.878860       0.000000
                                                         1.043811       0.000000
                                                         0.579895       0.000000
                                                         0.322164       0.000000
                                                         0.178980       0.000000
                          1      13    3dxy              3.381949      24.044314
                                                         1.878860       0.000000
                                                         1.043811       0.000000
                                                         0.579895       0.000000
                                                         0.322164       0.000000
                                                         0.178980       0.000000
                          1      13    3dxz              3.381949      24.044314
                                                         1.878860       0.000000
                                                         1.043811       0.000000
                                                         0.579895       0.000000
                                                         0.322164       0.000000
                                                         0.178980       0.000000
                          1      13    3dy2              3.381949      13.881991
                                                         1.878860       0.000000
                                                         1.043811       0.000000
                                                         0.579895       0.000000
                                                         0.322164       0.000000
                                                         0.178980       0.000000
                          1      13    3dyz              3.381949      24.044314
                                                         1.878860       0.000000
                                                         1.043811       0.000000
                                                         0.579895       0.000000
                                                         0.322164       0.000000
                                                         0.178980       0.000000
                          1      13    3dz2              3.381949      13.881991
                                                         1.878860       0.000000
                                                         1.043811       0.000000
                                                         0.579895       0.000000
                                                         0.322164       0.000000
                                                         0.178980       0.000000

                          1      14    4dx2              3.381949     -23.558178
                                                         1.878860       9.775434
                                                         1.043811       0.000000
                                                         0.579895       0.000000
                                                         0.322164       0.000000
                                                         0.178980       0.000000
                          1      14    4dxy              3.381949     -40.803962
                                                         1.878860      16.931549
                                                         1.043811       0.000000
                                                         0.579895       0.000000
                                                         0.322164       0.000000
                                                         0.178980       0.000000
                          1      14    4dxz              3.381949     -40.803962
                                                         1.878860      16.931549
                                                         1.043811       0.000000
                                                         0.579895       0.000000
                                                         0.322164       0.000000
                                                         0.178980       0.000000
                          1      14    4dy2              3.381949     -23.558178
                                                         1.878860       9.775434
                                                         1.043811       0.000000
                                                         0.579895       0.000000
                                                         0.322164       0.000000
                                                         0.178980       0.000000
                          1      14    4dyz              3.381949     -40.803962
                                                         1.878860      16.931549
                                                         1.043811       0.000000
                                                         0.579895       0.000000
                                                         0.322164       0.000000
                                                         0.178980       0.000000
                          1      14    4dz2              3.381949     -23.558178
                                                         1.878860       9.775434
                                                         1.043811       0.000000
                                                         0.579895       0.000000
                                                         0.322164       0.000000
                                                         0.178980       0.000000

                          1      15    5dx2              3.381949      26.186024
                                                         1.878860     -19.726332
                                                         1.043811       4.838723
                                                         0.579895       0.000000
                                                         0.322164       0.000000
                                                         0.178980       0.000000
                          1      15    5dxy              3.381949      45.355523
                                                         1.878860     -34.167010
                                                         1.043811       8.380914
                                                         0.579895       0.000000
                                                         0.322164       0.000000
                                                         0.178980       0.000000
                          1      15    5dxz              3.381949      45.355523
                                                         1.878860     -34.167010
                                                         1.043811       8.380914
                                                         0.579895       0.000000
                                                         0.322164       0.000000
                                                         0.178980       0.000000
                          1      15    5dy2              3.381949      26.186024
                                                         1.878860     -19.726332
                                                         1.043811       4.838723
                                                         0.579895       0.000000
                                                         0.322164       0.000000
                                                         0.178980       0.000000
                          1      15    5dyz              3.381949      45.355523
                                                         1.878860     -34.167010
                                                         1.043811       8.380914
                                                         0.579895       0.000000
                                                         0.322164       0.000000
                                                         0.178980       0.000000
                          1      15    5dz2              3.381949      26.186024
                                                         1.878860     -19.726332
                                                         1.043811       4.838723
                                                         0.579895       0.000000
                                                         0.322164       0.000000
                                                         0.178980       0.000000

                          1      16    6dx2              3.381949     -23.532947
                                                         1.878860      23.283831
                                                         1.043811     -10.383618
                                                         0.579895       2.036764
                                                         0.322164       0.000000
                                                         0.178980       0.000000
                          1      16    6dxy              3.381949     -40.760260
                                                         1.878860      40.328778
                                                         1.043811     -17.984954
                                                         0.579895       3.527778
                                                         0.322164       0.000000
                                                         0.178980       0.000000
                          1      16    6dxz              3.381949     -40.760260
                                                         1.878860      40.328778
                                                         1.043811     -17.984954
                                                         0.579895       3.527778
                                                         0.322164       0.000000
                                                         0.178980       0.000000
                          1      16    6dy2              3.381949     -23.532947
                                                         1.878860      23.283831
                                                         1.043811     -10.383618
                                                         0.579895       2.036764
                                                         0.322164       0.000000
                                                         0.178980       0.000000
                          1      16    6dyz              3.381949     -40.760260
                                                         1.878860      40.328778
                                                         1.043811     -17.984954
                                                         0.579895       3.527778
                                                         0.322164       0.000000
                                                         0.178980       0.000000
                          1      16    6dz2              3.381949     -23.532947
                                                         1.878860      23.283831
                                                         1.043811     -10.383618
                                                         0.579895       2.036764
                                                         0.322164       0.000000
                                                         0.178980       0.000000

                          1      17    7dx2              3.381949      18.889352
                                                         1.878860     -21.444636
                                                         1.043811      12.567515
                                                         0.579895      -4.487236
                                                         0.322164       0.790810
                                                         0.178980       0.000000
                          1      17    7dxy              3.381949      32.717318
                                                         1.878860     -37.143199
                                                         1.043811      21.767574
                                                         0.579895      -7.772121
                                                         0.322164       1.369724
                                                         0.178980       0.000000
                          1      17    7dxz              3.381949      32.717318
                                                         1.878860     -37.143199
                                                         1.043811      21.767574
                                                         0.579895      -7.772121
                                                         0.322164       1.369724
                                                         0.178980       0.000000
                          1      17    7dy2              3.381949      18.889352
                                                         1.878860     -21.444636
                                                         1.043811      12.567515
                                                         0.579895      -4.487236
                                                         0.322164       0.790810
                                                         0.178980       0.000000
                          1      17    7dyz              3.381949      32.717318
                                                         1.878860     -37.143199
                                                         1.043811      21.767574
                                                         0.579895      -7.772121
                                                         0.322164       1.369724
                                                         0.178980       0.000000
                          1      17    7dz2              3.381949      18.889352
                                                         1.878860     -21.444636
                                                         1.043811      12.567515
                                                         0.579895      -4.487236
                                                         0.322164       0.790810
                                                         0.178980       0.000000

                          1      18    8dx2              3.381949     -14.281687
                                                         1.878860      17.397534
                                                         1.043811     -11.700224
                                                         0.579895       5.492725
                                                         0.322164      -1.763529
                                                         0.178980       0.294757
                          1      18    8dxy              3.381949     -24.736607
                                                         1.878860      30.133412
                                                         1.043811     -20.265382
                                                         0.579895       9.513680
                                                         0.322164      -3.054522
                                                         0.178980       0.510533
                          1      18    8dxz              3.381949     -24.736607
                                                         1.878860      30.133412
                                                         1.043811     -20.265382
                                                         0.579895       9.513680
                                                         0.322164      -3.054522
                                                         0.178980       0.510533
                          1      18    8dy2              3.381949     -14.281687
                                                         1.878860      17.397534
                                                         1.043811     -11.700224
                                                         0.579895       5.492725
                                                         0.322164      -1.763529
                                                         0.178980       0.294757
                          1      18    8dyz              3.381949     -24.736607
                                                         1.878860      30.133412
                                                         1.043811     -20.265382
                                                         0.579895       9.513680
                                                         0.322164      -3.054522
                                                         0.178980       0.510533
                          1      18    8dz2              3.381949     -14.281687
                                                         1.878860      17.397534
                                                         1.043811     -11.700224
                                                         0.579895       5.492725
                                                         0.322164      -1.763529
                                                         0.178980       0.294757

                          2       1    4fx3              0.539490       0.367212
                          2       1    4fx2y             0.539490       0.821111
                          2       1    4fx2z             0.539490       0.821111
                          2       1    4fxy2             0.539490       0.821111
                          2       1    4fxyz             0.539490       1.422207
                          2       1    4fxz2             0.539490       0.821111
                          2       1    4fy3              0.539490       0.367212
                          2       1    4fy2z             0.539490       0.821111
                          2       1    4fyz2             0.539490       0.821111
                          2       1    4fz3              0.539490       0.367212

       Atomic covalent radius [Angstrom]:                                  1.110

       Atomic van der Waals radius [Angstrom]:                             2.100

     GTH Potential information for                                       GTH-PBE

       Description:                       Goedecker-Teter-Hutter pseudopotential
                                           Goedecker et al., PRB 54, 1703 (1996)
                                          Hartwigsen et al., PRB 58, 3641 (1998)
                                                      Krack, TCA 114, 145 (2005)

       Gaussian exponent of the core charge distribution:               2.582645
       Electronic configuration (s p d ...):                               2   2

       Parameters of the local part of the GTH pseudopotential:

                          rloc        C1          C2          C3          C4
                        0.440000   -6.269288

       Parameters of the non-local part of the GTH pseudopotential:

                   l      r(l)      h(i,j,l)

                   0    0.435634    8.951742   -2.706271
                                   -2.706271    3.493781
                   1    0.497942    2.431277


 MOLECULE KIND INFORMATION


 All atoms are their own molecule, skipping detailed information


 TOTAL NUMBERS AND MAXIMUM NUMBERS

  Total number of            - Atomic kinds:                                   1
                             - Atoms:                                          2
                             - Shell sets:                                     2
                             - Shells:                                        10
                             - Primitive Cartesian functions:                  8
                             - Cartesian basis functions:                     28
                             - Spherical basis functions:                     26

  Maximum angular momentum of- Orbital basis functions:                        2
                             - Local part of the GTH pseudopotential:          0
                             - Non-local part of the GTH pseudopotential:      2

  AUX_FIT ADMM-Basis: 
  Total number of            - Shell sets:                                    10
                             - Shells:                                        10
                             - Primitive Cartesian functions:                 14
                             - Cartesian basis functions:                     28
                             - Spherical basis functions:                     26
                               Maximum angular momentum                        2


 MODULE QUICKSTEP: ATOMIC COORDINATES IN ANGSTROM

   Atom Kind Element         X             Y             Z       Z(eff)     Mass
      1    1 Si   14      0.000000      0.000000      0.000000   4.0000  28.0855
      2    1 Si   14      1.357750      1.357750      1.357750   4.0000  28.0855



 SCF PARAMETERS         Density guess:                                    ATOMIC
                        --------------------------------------------------------
                        max_scf:                                             200
                        max_scf_history:                                       0
                        max_diis:                                              4
                        --------------------------------------------------------
                        eps_scf:                                        1.00E-06
                        eps_scf_history:                                0.00E+00
                        eps_diis:                                       5.00E-02
                        eps_eigval:                                     1.00E-05
                        --------------------------------------------------------
                        level_shift [a.u.]:                             0.000000
                        --------------------------------------------------------
                        Mixing method:                            BROYDEN_MIXING
                                                charge density mixing in g-space
                        --------------------------------------------------------
                        No outer SCF

 PW_GRID| Information for grid number                                          1
 PW_GRID| Grid distributed over                                    32 processors
 PW_GRID| Real space group dimensions                                    32    1
 PW_GRID| the grid is blocked:                                                NO
 PW_GRID| Cutoff [a.u.]                                                    300.0
 PW_GRID| spherical cutoff:                                                   NO
 PW_GRID|   Bounds   1            -30      29                Points:          60
 PW_GRID|   Bounds   2            -30      29                Points:          60
 PW_GRID|   Bounds   3            -30      29                Points:          60
 PW_GRID| Volume element (a.u.^3)  0.1251E-02     Volume (a.u.^3)       270.2564
 PW_GRID| Grid span                                                    FULLSPACE
 PW_GRID|   Distribution                         Average         Max         Min
 PW_GRID|   G-Vectors                             6750.0        6780        6720
 PW_GRID|   G-Rays                                 112.5         113         112
 PW_GRID|   Real Space Points                     6750.0        7200        3600

 PW_GRID| Information for grid number                                          2
 PW_GRID| Number of the reference grid                                         1
 PW_GRID| Grid distributed over                                    32 processors
 PW_GRID| Real space group dimensions                                    32    1
 PW_GRID| the grid is blocked:                                                NO
 PW_GRID| Cutoff [a.u.]                                                    100.0
 PW_GRID| spherical cutoff:                                                   NO
 PW_GRID|   Bounds   1            -18      17                Points:          36
 PW_GRID|   Bounds   2            -18      17                Points:          36
 PW_GRID|   Bounds   3            -18      17                Points:          36
 PW_GRID| Volume element (a.u.^3)  0.5793E-02     Volume (a.u.^3)       270.2564
 PW_GRID| Grid span                                                    FULLSPACE
 PW_GRID|   Distribution                         Average         Max         Min
 PW_GRID|   G-Vectors                             1458.0        1548        1368
 PW_GRID|   G-Rays                                  40.5          43          38
 PW_GRID|   Real Space Points                     1458.0        2592        1296

 PW_GRID| Information for grid number                                          3
 PW_GRID| Number of the reference grid                                         1
 PW_GRID| Grid distributed over                                    32 processors
 PW_GRID| Real space group dimensions                                     4    8
 PW_GRID| the grid is blocked:                                                NO
 PW_GRID| Cutoff [a.u.]                                                     33.3
 PW_GRID| spherical cutoff:                                                   NO
 PW_GRID|   Bounds   1            -10       9                Points:          20
 PW_GRID|   Bounds   2            -10       9                Points:          20
 PW_GRID|   Bounds   3            -10       9                Points:          20
 PW_GRID| Volume element (a.u.^3)  0.3378E-01     Volume (a.u.^3)       270.2564
 PW_GRID| Grid span                                                    FULLSPACE
 PW_GRID|   Distribution                         Average         Max         Min
 PW_GRID|   G-Vectors                              250.0         260         240
 PW_GRID|   G-Rays                                  12.5          13          12
 PW_GRID|   Real Space Points                      250.0         300         200

 PW_GRID| Information for grid number                                          4
 PW_GRID| Number of the reference grid                                         1
 PW_GRID| Grid distributed over                                    32 processors
 PW_GRID| Real space group dimensions                                     4    8
 PW_GRID| the grid is blocked:                                                NO
 PW_GRID| Cutoff [a.u.]                                                     11.1
 PW_GRID| spherical cutoff:                                                   NO
 PW_GRID|   Bounds   1             -6       5                Points:          12
 PW_GRID|   Bounds   2             -6       5                Points:          12
 PW_GRID|   Bounds   3             -6       5                Points:          12
 PW_GRID| Volume element (a.u.^3)  0.1564         Volume (a.u.^3)       270.2564
 PW_GRID| Grid span                                                    FULLSPACE
 PW_GRID|   Distribution                         Average         Max         Min
 PW_GRID|   G-Vectors                               54.0          72          36
 PW_GRID|   G-Rays                                   4.5           6           3
 PW_GRID|   Real Space Points                       54.0          72          36

 POISSON| Solver                                                        PERIODIC
 POISSON| Periodicity                                                        XYZ

 RS_GRID| Information for grid number                                          1
 RS_GRID|   Bounds   1            -30      29                Points:          60
 RS_GRID|   Bounds   2            -30      29                Points:          60
 RS_GRID|   Bounds   3            -30      29                Points:          60
 RS_GRID| Real space fully replicated
 RS_GRID| Group size                                                           1

 RS_GRID| Information for grid number                                          2
 RS_GRID|   Bounds   1            -18      17                Points:          36
 RS_GRID|   Bounds   2            -18      17                Points:          36
 RS_GRID|   Bounds   3            -18      17                Points:          36
 RS_GRID| Real space fully replicated
 RS_GRID| Group size                                                           1

 RS_GRID| Information for grid number                                          3
 RS_GRID|   Bounds   1            -10       9                Points:          20
 RS_GRID|   Bounds   2            -10       9                Points:          20
 RS_GRID|   Bounds   3            -10       9                Points:          20
 RS_GRID| Real space fully replicated
 RS_GRID| Group size                                                           1

 RS_GRID| Information for grid number                                          4
 RS_GRID|   Bounds   1             -6       5                Points:          12
 RS_GRID|   Bounds   2             -6       5                Points:          12
 RS_GRID|   Bounds   3             -6       5                Points:          12
 RS_GRID| Real space fully replicated
 RS_GRID| Group size                                                           1

 *** WARNING in hfx_types.F:2091 :: Periodic Hartree Fock calculation   ***
 *** requested with the use of a truncated or shortrange potential. The ***
 *** cutoff radius is larger than half the minimal cell dimension. This ***
 *** may lead to unphysical total energies. Reduce the cutoff radius in ***
 *** order to avoid possible problems.                                  ***


  HFX_INFO| Replica ID:                                                        1
  HFX_INFO| FRACTION:                                               0.2500000000
  HFX_INFO| Interaction Potential:                                    SHORTRANGE
  HFX_INFO| Omega:                                                  0.1100000000
  HFX_INFO| Cutoff Radius [angstrom]:                              20.0467199179
  HFX_RI_INFO| RI metric:                                             SHORTRANGE
  HFX_RI_INFO| Omega:                                               0.1100000000
  HFX_RI_INFO| Cutoff Radius [angstrom]:                           20.0467199179
  HFX_RI_INFO| RI flavor:                                                    RHO
  HFX_RI_INFO| EPS_FILTER                                                1.0E-09
  HFX_RI_INFO| EPS_FILTER 2-center                                       1.0E-12
  HFX_RI_INFO| EPS_FILTER storage                                        1.0E-11
  HFX_RI_INFO| EPS_FILTER MO                                             1.0E-12
  HFX_RI_INFO| EPS_PGF_ORB                                               1.0E-06
  HFX_RI_INFO| EPS_SCHWARZ:                                              1.0E-10
  HFX_RI_INFO| EPS_SCHWARZ_FORCES:                                       1.0E-08
  HFX_RI_INFO| Minimum block size                                              4
  HFX_RI_INFO| MO block size                                                  64
  HFX_RI_INFO| Memory reduction factor                                         3

 Number of electrons:                                                          8
 Number of occupied orbitals:                                                  4
 Number of molecular orbitals:                                                 4

 Number of orbital functions:                                                 26
 Number of independent orbital functions:                                     26

 Extrapolation method: initial_guess

 Atomic guess: The first density matrix is obtained in terms of atomic orbitals
               and electronic configurations assigned to each atomic kind

 Guess for atomic kind: Si

 Electronic structure
    Total number of core electrons                                         10.00
    Total number of valence electrons                                       4.00
    Total number of electrons                                              14.00
    Multiplicity                                                   not specified
    S   [  2.00  2.00] 2.00
    P   [  6.00] 2.00
 

 *******************************************************************************
                  Iteration          Convergence                     Energy [au]
 *******************************************************************************
                          1        0.526541E-01                  -3.659692963728
                          2        0.125823E-01                  -3.661785675622
                          3        0.408986E-04                  -3.661911567360
                          4        0.675570E-07                  -3.661911568709

 Energy components [Hartree]           Total Energy ::           -3.661911568709
                                        Band Energy ::           -0.941881516273
                                     Kinetic Energy ::            1.409736465412
                                   Potential Energy ::           -5.071648034121
                                      Virial (-V/T) ::            3.597585902439
                                        Core Energy ::           -5.690149137281
                                          XC Energy ::           -0.992569238249
                                     Coulomb Energy ::            3.020806806821
                       Total Pseudopotential Energy ::           -7.143143335066
                       Local Pseudopotential Energy ::           -8.006124475851
                    Nonlocal Pseudopotential Energy ::            0.862981140786
                                        Confinement ::            0.432577323720

 Orbital energies  State     L     Occupation   Energy[a.u.]          Energy[eV]

                       1     0          2.000      -0.357276           -9.721984
 
                       1     1          2.000      -0.113664           -3.092965
 

 Total Electron Density at R=0:                                         0.000026
 Re-scaling the density matrix to get the right number of electrons
                  # Electrons              Trace(P)               Scaling factor
                            8                 7.419                        1.078


 SCF WAVEFUNCTION OPTIMIZATION

  Step     Update method      Time    Convergence         Total energy    Change
  ------------------------------------------------------------------------------
  MEMORY_INFO| Memory for 3-center HFX integrals (compressed):          2.30 MiB
  MEMORY_INFO| Compression factor:                                          0.29
     Occupancy of density matrix P:                           6.8E+02 / 100.000%
     Occupancy of 3c ints:                                    8.2E+04 /  99.576%
     Occupancy after contraction with K:                      8.2E+04 / 100.000%
     Occupancy after contraction with P:                      8.2E+04 / 100.000%
     Occupancy of Kohn-Sham matrix:                           6.8E+02 / 100.000%
     1 NoMix/Diag. 0.30E+00   65.7     0.97596868        -7.3154090995 -7.32E+00
     2 Broy./Diag. 0.30E+00    2.2     0.40312652        -7.7356025363 -4.20E-01
     3 Broy./Diag. 0.30E+00    2.2     0.37847429        -7.8488784938 -1.13E-01
     4 Broy./Diag. 0.30E+00    2.2     0.24928238        -7.6888554189  1.60E-01
     5 Broy./Diag. 0.30E+00    2.2     0.20139798        -7.7125712897 -2.37E-02
     6 Broy./Diag. 0.30E+00    2.2     0.21664986        -7.6720729478  4.05E-02
     7 Broy./Diag. 0.30E+00    2.2     0.23509294        -7.6234335481  4.86E-02
     8 Broy./Diag. 0.30E+00    2.2     0.26096096        -7.5690880344  5.43E-02
     9 Broy./Diag. 0.30E+00    2.2     0.20629606        -7.5482360470  2.09E-02
    10 Broy./Diag. 0.30E+00    2.2     0.13860055        -7.5407660807  7.47E-03
    11 Broy./Diag. 0.30E+00    2.2     0.10736655        -7.5176873398  2.31E-02
    12 Broy./Diag. 0.30E+00    2.2     0.11712331        -7.4989619529  1.87E-02
    13 Broy./Diag. 0.30E+00    2.2     0.10067350        -7.5509855273 -5.20E-02
    14 Broy./Diag. 0.30E+00    2.2     0.04991374        -7.4571644394  9.38E-02
    15 Broy./Diag. 0.30E+00    2.2     0.04997232        -7.5642779156 -1.07E-01
    16 Broy./Diag. 0.30E+00    2.2     0.07389756        -7.7172199223 -1.53E-01
    17 Broy./Diag. 0.30E+00    2.2     0.03900113        -7.7699585900 -5.27E-02
    18 Broy./Diag. 0.30E+00    2.2     0.03109668        -7.8026960531 -3.27E-02
    19 Broy./Diag. 0.30E+00    2.2     0.04460055        -7.8502059608 -4.75E-02
    20 Broy./Diag. 0.30E+00    2.2     0.12531760        -7.8796613919 -2.95E-02
    21 Broy./Diag. 0.30E+00    2.2     0.07651554        -7.8960965962 -1.64E-02
    22 Broy./Diag. 0.30E+00    2.2     0.04373882        -7.9234473631 -2.74E-02
    23 Broy./Diag. 0.30E+00    2.2     0.05816539        -7.9177983083  5.65E-03
    24 Broy./Diag. 0.30E+00    2.2     0.04223375        -7.9240077820 -6.21E-03
    25 Broy./Diag. 0.30E+00    2.2     0.02509085        -7.9419200404 -1.79E-02
    26 Broy./Diag. 0.30E+00    2.2     0.01321277        -7.9506036088 -8.68E-03
    27 Broy./Diag. 0.30E+00    2.2     0.00982473        -7.9555288796 -4.93E-03
    28 Broy./Diag. 0.30E+00    2.2     0.02046312        -7.9600472862 -4.52E-03
    29 Broy./Diag. 0.30E+00    2.2     0.03153937        -7.9407263736  1.93E-02
    30 Broy./Diag. 0.30E+00    2.2     0.01519523        -7.9436820494 -2.96E-03
    31 Broy./Diag. 0.30E+00    2.2     0.00806291        -7.9434239209  2.58E-04
    32 Broy./Diag. 0.30E+00    2.2     0.00631660        -7.9408127567  2.61E-03
    33 Broy./Diag. 0.30E+00    2.2     0.00604152        -7.9405696165  2.43E-04
    34 Broy./Diag. 0.30E+00    2.2     0.00300523        -7.9404001123  1.70E-04
    35 Broy./Diag. 0.30E+00    2.2     0.00084299        -7.9403625988  3.75E-05
    36 Broy./Diag. 0.30E+00    2.2     0.00069150        -7.9403614080  1.19E-06
    37 Broy./Diag. 0.30E+00    2.2     0.00206791        -7.9405400266 -1.79E-04
    38 Broy./Diag. 0.30E+00    2.2     0.00135756        -7.9405851414 -4.51E-05
    39 Broy./Diag. 0.30E+00    2.2     0.00037095        -7.9406110101 -2.59E-05
    40 Broy./Diag. 0.30E+00    2.2     0.00019566        -7.9406214583 -1.04E-05
    41 Broy./Diag. 0.30E+00    2.2     0.00016826        -7.9406318302 -1.04E-05
    42 Broy./Diag. 0.30E+00    2.2     0.00010727        -7.9406389131 -7.08E-06
    43 Broy./Diag. 0.30E+00    2.2     0.00006283        -7.9406346083  4.30E-06
    44 Broy./Diag. 0.30E+00    2.2     0.00005959        -7.9406353544 -7.46E-07
    45 Broy./Diag. 0.30E+00    2.2     0.00004268        -7.9406362355 -8.81E-07
    46 Broy./Diag. 0.30E+00    2.2     0.00002959        -7.9406371228 -8.87E-07
    47 Broy./Diag. 0.30E+00    2.2     0.00002263        -7.9406357668  1.36E-06
    48 Broy./Diag. 0.30E+00    2.2     0.00002072        -7.9406359690 -2.02E-07
    49 Broy./Diag. 0.30E+00    2.2     0.00001217        -7.9406369675 -9.99E-07
    50 Broy./Diag. 0.30E+00    2.2     0.00000885        -7.9406368468  1.21E-07
    51 Broy./Diag. 0.30E+00    2.2     0.00000666        -7.9406367093  1.38E-07
    52 Broy./Diag. 0.30E+00    2.2     0.00000556        -7.9406368488 -1.39E-07
    53 Broy./Diag. 0.30E+00    2.2     0.00000920        -7.9406370556 -2.07E-07
    54 Broy./Diag. 0.30E+00    2.2     0.00000949        -7.9406372678 -2.12E-07
    55 Broy./Diag. 0.30E+00    2.2     0.00001049        -7.9406376036 -3.36E-07
    56 Broy./Diag. 0.30E+00    2.2     0.00000764        -7.9406374633  1.40E-07
    57 Broy./Diag. 0.30E+00    2.2     0.00000542        -7.9406374769 -1.35E-08
    58 Broy./Diag. 0.30E+00    2.2     0.00000507        -7.9406374387  3.82E-08
    59 Broy./Diag. 0.30E+00    2.2     0.00000260        -7.9406374474 -8.74E-09
    60 Broy./Diag. 0.30E+00    2.2     0.00000040        -7.9406374471  3.55E-10

  *** SCF run converged in    60 steps ***


  Electronic density on regular grids:         -8.0000000000       -0.0000000000
  Core density on regular grids:                8.0000000000       -0.0000000000
  Total charge density on r-space grids:       -0.0000000000
  Total charge density g-space grids:          -0.0000000000

  Overlap energy of the core charge distribution:               0.00000000001326
  Self energy of the core charge distribution:                -20.51598485628205
  Core Hamiltonian energy:                                      5.25316557929434
  Hartree energy:                                              10.58652497370281
  Exchange-correlation energy:                                 -2.11521800086982
  Hartree-Fock Exchange energy:                                -1.14912514293892

  Total energy:                                                -7.94063744708038

 !-----------------------------------------------------------------------------!
                     Mulliken Population Analysis

 #  Atom  Element  Kind  Atomic population                           Net charge
       1     Si       1          4.000003                             -0.000003
       2     Si       1          3.999997                              0.000003
 # Total charge                              8.000000                  0.000000

 !-----------------------------------------------------------------------------!

 !-----------------------------------------------------------------------------!
                           Hirshfeld Charges

  #Atom  Element  Kind  Ref Charge     Population                    Net charge
      1       Si     1       4.000          4.000                        -0.000
      2       Si     1       4.000          4.000                         0.000

  Total Charge                                                           -0.000
 !-----------------------------------------------------------------------------!

 ENERGY| Total FORCE_EVAL ( QS ) energy [a.u.]:               -7.940637447080381

 -------------------------------------------------------------------------------
 -                                                                             -
 -                                DBCSR STATISTICS                             -
 -                                                                             -
 -------------------------------------------------------------------------------
 COUNTER                                    TOTAL       BLAS       SMM       ACC
 flops    13 x     4 x    13                16224       0.0%    100.0%      0.0%     
 flops    13 x    13 x     4               490776       0.0%    100.0%      0.0%     
 flops inhomo. stacks                           0       0.0%      0.0%      0.0%
 flops total                       507.000000E+03       0.0%    100.0%      0.0%
 flops max/rank                    327.184000E+03       0.0%    100.0%      0.0%
 matmuls inhomo. stacks                         0       0.0%      0.0%      0.0%
 matmuls total                                375       0.0%    100.0%      0.0%
 number of processed stacks                   248       0.0%    100.0%      0.0%
 average stack size                                     0.0       1.5       0.0
 marketing flops                   670.592000E+03
 -------------------------------------------------------------------------------
 # multiplications                            124
 max memory usage/rank             414.396416E+06
 # max total images/rank                        2
 # max 3D layers                                1
 # MPI messages exchanged                   51584
 MPI messages size (bytes):
  total size                         1.127776E+06
  min size                           0.000000E+00
  max size                           2.704000E+03
  average size                      21.862904E+00
 MPI breakdown and total messages size (bytes):
             size <=      128               49951                        0
       128 < size <=     8192                1633                  1127776
      8192 < size <=    32768                   0                        0
     32768 < size <=   131072                   0                        0
    131072 < size <=  4194304                   0                        0
   4194304 < size <= 16777216                   0                        0
  16777216 < size                               0                        0
 -------------------------------------------------------------------------------

 *** WARNING in dbcsr_mm.F:301 :: Using a non-square number of MPI ranks ***
 *** might lead to poor performance. Used ranks: 32 Suggested: 36 64     ***

 -------------------------------------------------------------------------------
 -                                                                             -
 -                      DBCSR MESSAGE PASSING PERFORMANCE                      -
 -                                                                             -
 -------------------------------------------------------------------------------
 ROUTINE             CALLS      AVE VOLUME [Bytes]
 MP_Bcast                3                     12.
 MP_Allreduce         1058                      8.
 MP_Alltoall          5263                   3326.
 MP_ISend             3962                    113.
 MP_IRecv             3720                     62.
 -------------------------------------------------------------------------------

 -------------------------------------------------------------------------------
 -                                                                             -
 -                                DBM STATISTICS                               -
 -                                                                             -
 -------------------------------------------------------------------------------
    M  x    N  x    K                                          COUNT     PERCENT
    ?  x    ?  x  ???                                          25920      24.97%
  ???  x    ?  x    ?                                          25920      24.97%
    ?  x    ?  x   ??                                          25892      24.95%
   ??  x    ?  x    ?                                          25200      24.28%
    ?  x    ?  x    ?                                            287       0.28%
    ?  x   ??  x   ??                                            144       0.14%
   ??  x   ??  x   ??                                            144       0.14%
    ?  x   ??  x    ?                                            140       0.13%
   ??  x   ??  x    ?                                            140       0.13%
 -------------------------------------------------------------------------------

 -------------------------------------------------------------------------------
 -                                                                             -
 -                                GRID STATISTICS                              -
 -                                                                             -
 -------------------------------------------------------------------------------
 LP    KERNEL             BACKEND                              COUNT     PERCENT
 4     collocate general  CPU                                 218680      14.66%
 4     integrate general  CPU                                 215160      14.42%
 1     collocate general  CPU                                 214320      14.37%
 1     integrate general  CPU                                 214320      14.37%
 2     collocate general  CPU                                 167160      11.21%
 2     integrate general  CPU                                 167160      11.21%
 0     collocate general  CPU                                  95404       6.40%
 0     integrate general  CPU                                  95402       6.40%
 3     collocate general  CPU                                  52080       3.49%
 3     integrate general  CPU                                  52080       3.49%
 -------------------------------------------------------------------------------

 MEMORY| Estimated peak process memory [MiB]                                 396

 -------------------------------------------------------------------------------
 ----                             MULTIGRID INFO                            ----
 -------------------------------------------------------------------------------
 count for grid        1:            402          cutoff [a.u.]          300.00
 count for grid        2:          28144          cutoff [a.u.]          100.00
 count for grid        3:          26462          cutoff [a.u.]           33.33
 count for grid        4:          17426          cutoff [a.u.]           11.11
 total gridlevel count  :          72434

 RI-HFX PERFORMANCE| DBT total number of flops:                         5.34E+08
 RI-HFX PERFORMANCE| DBT total execution time:                              1.95
 RI-HFX PERFORMANCE| DBT flop rate (Gflops / MPI rank):                     0.01

 -------------------------------------------------------------------------------
 -                                                                             -
 -                         MESSAGE PASSING PERFORMANCE                         -
 -                                                                             -
 -------------------------------------------------------------------------------

 ROUTINE             CALLS      AVE VOLUME [Bytes]
 MP_Group            10404
 MP_Bcast             4794                  73365.
 MP_Allreduce        43143                     11.
 MP_Sync             14822
 MP_Alltoall          7406                 411915.
 MP_SendRecv         15066                  20481.
 MP_ISendRecv        14911                  20405.
 MP_Wait             17941
 MP_comm_split        4617
 MP_ISend            11709                    166.
 MP_IRecv             9311                    326.
 -------------------------------------------------------------------------------


 -------------------------------------------------------------------------------
 -                                                                             -
 -                           R E F E R E N C E S                               -
 -                                                                             -
 -------------------------------------------------------------------------------
 
 CP2K version 2024.3, the CP2K developers group (2024).
 CP2K is freely available from https://www.cp2k.org/ .
 
 A. Bussy, O. Schuett, J. Hutter.
 J. Chem. Phys. 158, 164109 (2023).
 Sparse tensor based nuclear gradients for periodic Hartree-Fock and low-scaling 
 correlated wave function methods in the CP2K software package: A massively 
 parallel and GPU accelerated implementation..
 https://doi.org/10.1063/5.0144493

 T. D. Kuehne, M. Iannuzzi, M. Del Ben, V. V. Rybkin, P. Seewald, F. Stein, T. 
 Laino, R. Z. Khaliullin, O. Schuett, F. Schiffmann, D. Golze, J. Wilhelm, S. 
 Chulkov, M. H. Bani-Hashemian, V. Weber, U. Borstnik, M. Taillefumier, A. S. 
 Jakobovits, A. Lazzaro, H. Pabst, T. Mueller, R. Schade, M. Guidon, S. 
 Andermatt, N. Holmberg, G. K. Schenter, A. Hehn, A. Bussy, F. Belleflamme, G. 
 Tabacchi, A. Gloess, M. Lass, I. Bethune, C. J. Mundy, C. Plessl, M. Watkins, 
 J. VandeVondele, M. Krack, J. Hutter.
 J. Chem. Phys. 152, 194103 (2020).
 CP2K: An electronic structure and molecular dynamics software package - 
 Quickstep: Efficient and accurate electronic structure calculations.
 https://doi.org/10.1063/5.0007045

 G. L. Stoychev, A. A. Auer, F. Neese.
 J. Chem. Theory Comput. 13, 554-562 (2017).
 Automatic Generation of Auxiliary Basis Sets.
 https://doi.org/10.1021/acs.jctc.6b01041

 O. Schuett, P. Messmer, J. Hutter, J. VandeVondele.
 Electronic Structure Calculations on Graphics Processing Units, 173-190 (2016).
 GPU-Accelerated Sparse Matrix-Matrix Multiplication for Linear Scaling Density 
 Functional Theory.
 https://doi.org/10.1002/9781118670712.ch8

 A. Heinecke, G. Henry, M. Hutchinson, H. Pabst.
 Proceedings of Intl. Supercomputing Conference, 981-991 (2016).
 LIBXSMM: Accelerating Small Matrix Multiplications by Runtime Code Generation.
 https://doi.org/10.1109/SC.2016.83

 J. Hutter, M. Iannuzzi, F. Schiffmann, J. VandeVondele.
 WIREs Comput Mol Sci. 4, 15-25 (2014).
 CP2K: atomistic simulations of condensed matter systems.
 https://doi.org/10.1002/wcms.1159

 U. Borstnik, J. VandeVondele, V. Weber, J. Hutter.
 Parallel Comput. 40, 47-58 (2014).
 Sparse matrix multiplication: The distributed block-compressed sparse row 
 library.
 https://doi.org/10.1016/j.parco.2014.03.012

 P. Merlot, R. Izsak, A. Borgo, T. Kjaergaard, T. Helgaker, S. Reine.
 J. Chem. Phys. 141, 094104 (2014).
 Charge-constrained auxiliary-density-matrix methods for the Hartree-Fock 
 exchange contribution.
 https://doi.org/10.1063/1.4894267

 A. Marek, V. Blum, R. Johanni, V. Havu, B. Lang, T. Auckenthaler, A. Heinecke, 
 H. Bungartz, H. Lederer.
 J. Phys. Condens. Matter 26, 213201 (2014).
 The ELPA library: scalable parallel eigenvalue solutions for electronic 
 structure theory and computational science.
 https://doi.org/10.1088/0953-8984/26/21/213201

 M. Guidon, J. Hutter, J. VandeVondele.
 J. Chem. Theory Comput. 6, 2348-2364 (2010).
 Auxiliary Density Matrix Methods for Hartree-Fock Exchange Calculations.
 https://doi.org/10.1021/ct1002225

 M. Guidon, J. Hutter, J. VandeVondele.
 J. Chem. Theory Comput. 5, 3010-3021 (2009).
 Robust Periodic Hartree-Fock Exchange for Large-Scale Simulations Using 
 Gaussian Basis Sets.
 https://doi.org/10.1021/ct900494g

 M. Guidon, F. Schiffmann, J. Hutter, J. VandeVondele.
 J. Chem. Phys. 128, 214104 (2008).
 Ab initio molecular dynamics using hybrid density functionals.
 https://doi.org/10.1063/1.2931945

 J. VandeVondele, J. Hutter.
 J. Chem. Phys. 127, 114105 (2007).
 Gaussian basis sets for accurate calculations on molecular systems in gas and 
 condensed phases.
 https://doi.org/10.1063/1.2770708

 J. VandeVondele, M. Krack, F. Mohamed, M. Parrinello, T. Chassaing, J. Hutter.
 Comput. Phys. Commun. 167, 103-128 (2005).
 QUICKSTEP: Fast and accurate density functional calculations using a mixed 
 Gaussian and plane waves approach.
 https://doi.org/10.1016/j.cpc.2004.12.014

 M. Krack.
 Theor. Chem. Acc. 114, 145-152 (2005).
 Pseudopotentials for H to Kr optimized for gradient-corrected 
 exchange-correlation functionals.
 https://doi.org/10.1007/s00214-005-0655-y

 M. Frigo, S. G. Johnson.
 Proc. IEEE 93, 216-231 (2005).
 The design and implementation of FFTW3.
 https://doi.org/10.1109/JPROC.2004.840301

 J. Heyd, G. E. Scuseria.
 J. Chem. Phys. 120, 7274-7280 (2004).
 Assessment and validation of a screened Coulomb hybrid density functional.
 https://doi.org/10.1063/1.1668634

 C. Hartwigsen, S. Goedecker, J. Hutter.
 Phys. Rev. B 58, 3641-3662 (1998).
 Relativistic separable dual-space Gaussian pseudopotentials from H to Rn.
 https://doi.org/10.1103/PhysRevB.58.3641

 G. Lippert, J. Hutter, M. Parrinello.
 Mol. Phys. 92, 477-487 (1997).
 A hybrid Gaussian and plane wave density functional scheme.
 https://doi.org/10.1080/002689797170220

 S. Goedecker, M. Teter, J. Hutter.
 Phys. Rev. B 54, 1703-1710 (1996).
 Separable dual-space Gaussian pseudopotentials.
 https://doi.org/10.1103/PhysRevB.54.1703

 J. P. Perdew, K. Burke, M. Ernzerhof.
 Phys. Rev. Lett. 77, 3865-3868 (1996).
 Generalized gradient approximation made simple.
 https://doi.org/10.1103/PhysRevLett.77.3865


 -------------------------------------------------------------------------------
 -                                                                             -
 -                                T I M I N G                                  -
 -                                                                             -
 -------------------------------------------------------------------------------
 SUBROUTINE                       CALLS  ASD         SELF TIME        TOTAL TIME
                                MAXIMUM       AVERAGE  MAXIMUM  AVERAGE  MAXIMUM
 CP2K                                 1  1.0    0.013    0.036  197.827  197.829
 qs_energies                          1  2.0    0.000    0.000  197.658  197.658
 scf_env_do_scf                       1  3.0    0.000    0.000  196.940  196.940
 scf_env_do_scf_inner_loop           60  4.0    0.001    0.008  196.940  196.940
 qs_ks_update_qs_env                 60  5.0    0.000    0.000  159.434  159.436
 rebuild_ks_matrix                   60  6.0    0.000    0.000  159.433  159.434
 qs_ks_build_kohn_sham_matrix        60  7.0    0.012    0.013  159.433  159.434
 calculate_rho_elec                 121  7.5    0.003    0.003   75.589   75.589
 density_rs2pw                      121  8.5    0.002    0.002   72.010   75.535
 transfer_rs2pw                     486  9.5    0.001    0.001   71.976   75.503
 transfer_rs2pw_300                 123 10.4    0.043    0.047   71.920   75.451
 mp_sendrecv_dv                   15066 11.5   71.913   75.442   71.913   75.442
 grid_collocate_task_list           121  8.5    3.574   75.359    3.574   75.359
 hfx_ks_matrix                       60  8.0    0.022    0.022   66.012   66.013
 hfx_ri_update_ks                    60  9.0    0.001    0.001   65.989   65.989
 hfx_ri_update_ks_Pmat               60 10.0    0.255    0.258   65.986   65.987
 mp_sync                          14822 13.4   58.051   64.045   58.051   64.045
 hfx_ri_pre_scf_Pmat                  1 11.0    0.000    0.001   63.961   63.961
 hfx_ri_pre_scf_Pmat_int              1 12.0    0.000    0.000   63.917   63.917
 hfx_ri_pre_scf_calc_tensors          1 13.0    0.004    0.004   63.706   63.917
 sum_up_and_integrate                60  8.0    0.001    0.001   23.380   55.037
 integrate_v_rspace                 120  9.0    0.001    0.002   23.375   55.032
 grid_integrate_task_list           120 10.0    2.566   54.780    2.566   54.780
 qs_rho_update_rho_low               61  5.0    0.000    0.000   37.939   37.939
 admm_mo_calc_rho_aux                60  8.0    0.000    0.000   37.712   37.713
 admm_mo_merge_ks_matrix             60  8.0    0.000    0.000   31.728   33.284
 merge_ks_matrix_none                60  9.0    0.002    0.002   31.728   33.284
 copy_dbcsr_to_fm                   188  8.7    0.001    0.001   31.704   33.261
 mp_alltoall_i22                    805 11.5   31.677   33.253   31.677   33.253
 dbcsr_desymmetrize_deep            310 10.6    0.003    0.004   31.683   33.239
 build_3c_integrals                   2 14.0    4.313   23.110    5.962   31.895
 fft_wrap_pw1pw2                   2045 10.7    0.003    0.003   20.884   22.061
 fft3d_ps                          2045 12.7    0.078    0.084   20.831   22.011
 fft_wrap_pw1pw2_300               1322 11.9    0.010    0.010   20.821   21.998
 mp_alltoall_z22v                  2045 14.7   20.712   21.910   20.712   21.910
 yz_to_x                            723 14.0    0.007    0.008   20.660   21.852
 potential_pw2rs                    120 10.0    0.002    0.002   20.808   21.819
 abc_contract_xsmm              2925369 15.0    1.099    5.914    1.099    5.914
 -------------------------------------------------------------------------------

 The number of warnings for this run is : 2
 
 -------------------------------------------------------------------------------
  **** **** ******  **  PROGRAM ENDED AT                 2026-06-23 19:22:41.671
 ***** ** ***  *** **   PROGRAM RAN ON                                      cu04
 **    ****   ******    PROGRAM RAN BY                                     rudin
 ***** **    ** ** **   PROGRAM PROCESS ID                               3053505
  **** **  *******  **  PROGRAM STOPPED IN /home/rudin/code/kylin-pbc/art/exampl
                                           e/extern/Si-HSE06-gamma-cp2k-ADMM
