 DBCSR| CPU Multiplication driver                                           XSMM (U)
 DBCSR| Multrec recursion limit                                              512 (U)
 DBCSR| Multiplication stack size                                           1000 (D)
 DBCSR| Maximum elements for images                                    UNLIMITED (U)
 DBCSR| Multiplicative factor virtual images                                   1 (U)
 DBCSR| Use multiplication densification                                       T (D)
 DBCSR| Multiplication size stacks                                             3 (U)
 DBCSR| Use memory pool for CPU allocation                                     F (U)
 DBCSR| Number of 3D layers                                               SINGLE (U)
 DBCSR| Use MPI memory allocation                                              F (U)
 DBCSR| Use RMA algorithm                                                      F (U)
 DBCSR| Use Communication thread                                               T (U)
 DBCSR| Communication thread load                                             87 (D)
 DBCSR| MPI: My process id                                                     0
 DBCSR| MPI: Number of processes                                              32
 DBCSR| OMP: Current number of threads                                         1
 DBCSR| OMP: Max number of threads                                             1
 DBCSR| Split modifier for TAS multiplication algorithm                  1.0E+00 (U)


  **** **** ******  **  PROGRAM STARTED AT               2026-09-30 22:37:35.975
 ***** ** ***  *** **   PROGRAM STARTED ON                                  cu06
 **    ****   ******    PROGRAM STARTED BY                                 rudin
 ***** **    ** ** **   PROGRAM PROCESS ID                                491792
  **** **  *******  **  PROGRAM STARTED IN /home/rudin/tmp-review-cp2k/4c-admm-p
                                           be/Si256

 CP2K| version string:                                       CP2K version 2024.3
 CP2K| source code revision number:                                  git:6712648
 CP2K| cp2kflags: omp libint fftw3 libxc libgrpp elpa parallel scalapack mpi_f08
 CP2K|             cosma xsmm plumed2 spglib mkl libvori libbqb
 CP2K| is freely available from                            https://www.cp2k.org/
 CP2K| Program compiled at            2026年 01月 07日 星期三 01:43:54 CST
 CP2K| Program compiled on                                                  mu01
 CP2K| Program compiled for                                                local
 CP2K| Data directory path    /software/Applications/cp2k/cp2k-2024.3-oneapi-202
 CP2K| Input file name                                                   pbe.inp
 
 GLOBAL| Force Environment number                                              1
 GLOBAL| Basis set file name                                        BASIS_MOLOPT
 GLOBAL| Potential file name                                      GTH_POTENTIALS
 GLOBAL| MM Potential file name                                     MM_POTENTIAL
 GLOBAL| Coordinate file name                                      __STD_INPUT__
 GLOBAL| Method name                                                        CP2K
 GLOBAL| Project name                                                  Si256-PBE
 GLOBAL| Run type                                                         ENERGY
 GLOBAL| FFT library                                                       FFTW3
 GLOBAL| Diagonalization library                                            ELPA
 GLOBAL| DGEMM library                                                      BLAS
 GLOBAL| Minimum number of eigenvectors for ELPA usage                        16
 GLOBAL| Orthonormality check for eigenvectors                          DISABLED
 GLOBAL| Matrix multiplication library                                     COSMA
 GLOBAL| All-to-all communication in single precision                          F
 GLOBAL| FFTs using library dependent lengths                                  F
 GLOBAL| Grid backend                                                       AUTO
 GLOBAL| Global print level                                               MEDIUM
 GLOBAL| MPI I/O enabled                                                       T
 GLOBAL| Total number of message passing processes                            32
 GLOBAL| Number of threads for this process                                    1
 GLOBAL| This output is from process                                           0
 GLOBAL| Stack size for threads created by OpenMP (OMP_STACKSIZE)        default
 GLOBAL| CPU model name                              INTEL(R) XEON(R) GOLD 6544Y
 GLOBAL| CPUID                                                              1003

 MEMORY| system memory details [Kb]
 MEMORY|                        rank 0           min           max       average
 MEMORY| MemTotal            527978136     527978136     527978136     527978136
 MEMORY| MemFree             521358664     521358664     521359168     521358727
 MEMORY| Buffers                   912           912           912           912
 MEMORY| Cached                 287888        287888        287888        287888
 MEMORY| Slab                   530404        530404        530404        530404
 MEMORY| SReclaimable           143780        143780        143780        143780
 MEMORY| MemLikelyFree       521791244     521791244     521791748     521791307


 *** Fundamental physical constants (SI units) ***

 *** Literature: B. J. Mohr and B. N. Taylor,
 ***             CODATA recommended values of the fundamental physical
 ***             constants: 2006, Web Version 5.1
 ***             http://physics.nist.gov/constants

 Speed of light in vacuum [m/s]                             2.99792458000000E+08
 Magnetic constant or permeability of vacuum [N/A**2]       1.25663706143592E-06
 Electric constant or permittivity of vacuum [F/m]          8.85418781762039E-12
 Planck constant (h) [J*s]                                  6.62606896000000E-34
 Planck constant (h-bar) [J*s]                              1.05457162825177E-34
 Elementary charge [C]                                      1.60217648700000E-19
 Electron mass [kg]                                         9.10938215000000E-31
 Electron g factor [ ]                                     -2.00231930436220E+00
 Proton mass [kg]                                           1.67262163700000E-27
 Fine-structure constant                                    7.29735253760000E-03
 Rydberg constant [1/m]                                     1.09737315685270E+07
 Avogadro constant [1/mol]                                  6.02214179000000E+23
 Boltzmann constant [J/K]                                   1.38065040000000E-23
 Atomic mass unit [kg]                                      1.66053878200000E-27
 Bohr radius [m]                                            5.29177208590000E-11

 *** Conversion factors ***

 [u] -> [a.u.]                                              1.82288848426455E+03
 [Angstrom] -> [Bohr] = [a.u.]                              1.88972613288564E+00
 [a.u.] = [Bohr] -> [Angstrom]                              5.29177208590000E-01
 [a.u.] -> [s]                                              2.41888432650478E-17
 [a.u.] -> [fs]                                             2.41888432650478E-02
 [a.u.] -> [J]                                              4.35974393937059E-18
 [a.u.] -> [N]                                              8.23872205491840E-08
 [a.u.] -> [K]                                              3.15774647902944E+05
 [a.u.] -> [kJ/mol]                                         2.62549961709828E+03
 [a.u.] -> [kcal/mol]                                       6.27509468713739E+02
 [a.u.] -> [Pa]                                             2.94210107994716E+13
 [a.u.] -> [bar]                                            2.94210107994716E+08
 [a.u.] -> [atm]                                            2.90362800883016E+08
 [a.u.] -> [eV]                                             2.72113838565563E+01
 [a.u.] -> [Hz]                                             6.57968392072181E+15
 [a.u.] -> [1/cm] (wave numbers)                            2.19474631370540E+05
 [a.u./Bohr**2] -> [1/cm]                                   5.14048714338585E+03
 

 CELL_TOP| Volume [angstrom^3]:                                      5126.127296
 CELL_TOP| Vector a [angstrom    21.724     0.000     0.000   |a| =    21.724000
 CELL_TOP| Vector b [angstrom     0.000    21.724     0.000   |b| =    21.724000
 CELL_TOP| Vector c [angstrom     0.000     0.000    10.862   |c| =    10.862000
 CELL_TOP| Angle (b,c), alpha [degree]:                                90.000000
 CELL_TOP| Angle (a,c), beta  [degree]:                                90.000000
 CELL_TOP| Angle (a,b), gamma [degree]:                                90.000000
 CELL_TOP| Numerically orthorhombic:                                         YES
 CELL_TOP| Periodicity                                                       XYZ
 
 GENERATE|  Preliminary Number of Bonds generated:                             0
 GENERATE|  Achieved consistency in connectivity generation.

 CELL| Volume [angstrom^3]:                                          5126.127296
 CELL| Vector a [angstrom]:      21.724     0.000     0.000   |a| =    21.724000
 CELL| Vector b [angstrom]:       0.000    21.724     0.000   |b| =    21.724000
 CELL| Vector c [angstrom]:       0.000     0.000    10.862   |c| =    10.862000
 CELL| Angle (b,c), alpha [degree]:                                    90.000000
 CELL| Angle (a,c), beta  [degree]:                                    90.000000
 CELL| Angle (a,b), gamma [degree]:                                    90.000000
 CELL| Numerically orthorhombic:                                             YES
 CELL| Periodicity                                                           XYZ

 CELL_REF| Volume [angstrom^3]:                                      5126.127296
 CELL_REF| Vector a [angstrom    21.724     0.000     0.000   |a| =    21.724000
 CELL_REF| Vector b [angstrom     0.000    21.724     0.000   |b| =    21.724000
 CELL_REF| Vector c [angstrom     0.000     0.000    10.862   |c| =    10.862000
 CELL_REF| Angle (b,c), alpha [degree]:                                90.000000
 CELL_REF| Angle (a,c), beta  [degree]:                                90.000000
 CELL_REF| Angle (a,b), gamma [degree]:                                90.000000
 CELL_REF| Numerically orthorhombic:                                         YES
 CELL_REF| Periodicity                                                       XYZ

 *******************************************************************************
 *******************************************************************************
 **                                                                           **
 **     #####                         ##              ##                      **
 **    ##   ##            ##          ##              ##                      **
 **   ##     ##                       ##            ######                    **
 **   ##     ##  ##   ##  ##   #####  ##  ##   ####   ##    #####    #####    **
 **   ##     ##  ##   ##  ##  ##      ## ##   ##      ##   ##   ##  ##   ##   **
 **   ##  ## ##  ##   ##  ##  ##      ####     ###    ##   ######   ######    **
 **    ##  ###   ##   ##  ##  ##      ## ##      ##   ##   ##       ##        **
 **     #######   #####   ##   #####  ##  ##  ####    ##    #####   ##        **
 **           ##                                                    ##        **
 **                                                                           **
 **                                                ... make the atoms dance   **
 **                                                                           **
 **            Copyright (C) by CP2K developers group (2000-2024)             **
 **                      J. Chem. Phys. 152, 194103 (2020)                    **
 **                                                                           **
 *******************************************************************************

 DFT| Spin restricted Kohn-Sham (RKS) calculation                            RKS
 DFT| Multiplicity                                                             1
 DFT| Number of spin states                                                    1
 DFT| Charge                                                                   0
 DFT| Self-interaction correction (SIC)                                       NO
 DFT| Cutoffs: density                                              1.000000E-10
 DFT|          gradient                                             1.000000E-10
 DFT|          tau                                                  1.000000E-10
 DFT|          cutoff_smoothing_range                               0.000000E+00
 DFT| XC density smoothing                                                  NONE
 DFT| XC derivatives                                                          PW

 FUNCTIONAL| PBE:
 FUNCTIONAL| J.P.Perdew, K.Burke, M.Ernzerhof, Phys. Rev. Letter, vol. 77, n 18,
 FUNCTIONAL|  pp. 3865-3868, (1996) {spin unpolarized}                          


 QS| Method:                                                                 GPW
 QS| Density plane wave grid type                        NON-SPHERICAL FULLSPACE
 QS| Number of grid levels:                                                    4
 QS| Density cutoff [a.u.]:                                                300.0
 QS| Multi grid cutoff [a.u.]: 1) grid level                               300.0
 QS|                           2) grid level                               100.0
 QS|                           3) grid level                                33.3
 QS|                           4) grid level                                11.1
 QS| Grid level progression factor:                                          3.0
 QS| Relative density cutoff [a.u.]:                                        30.0
 QS| Interaction thresholds: eps_pgf_orb:                                1.0E-06
 QS|                         eps_filter_matrix:                          0.0E+00
 QS|                         eps_core_charge:                            1.0E-14
 QS|                         eps_rho_gspace:                             1.0E-12
 QS|                         eps_rho_rspace:                             1.0E-12
 QS|                         eps_gvg_rspace:                             1.0E-06
 QS|                         eps_ppl:                                    1.0E-02
 QS|                         eps_ppnl:                                   1.0E-08


 ATOMIC KIND INFORMATION

  1. Atomic kind: Si                                    Number of atoms:     256

     Orbital Basis Set                                        DZVP-MOLOPT-SR-GTH

       Number of orbital shell sets:                                           1
       Number of orbital shells:                                               5
       Number of primitive Cartesian functions:                                4
       Number of Cartesian basis functions:                                   14
       Number of spherical basis functions:                                   13
       Norm type:                                                              2

       Normalised Cartesian orbitals:

                        Set   Shell   Orbital            Exponent    Coefficient

                          1       1    2s                1.256768       0.294045
                                                         0.506394      -0.015884
                                                         0.238884      -0.207657
                                                         0.087337      -0.036225

                          1       2    3s                1.256768      -1.532347
                                                         0.506394       0.524539
                                                         0.238884       0.025013
                                                         0.087337      -0.052203

                          1       3    3px               1.256768       0.152274
                                                         0.506394      -0.154145
                                                         0.238884      -0.115581
                                                         0.087337      -0.028372
                          1       3    3py               1.256768       0.152274
                                                         0.506394      -0.154145
                                                         0.238884      -0.115581
                                                         0.087337      -0.028372
                          1       3    3pz               1.256768       0.152274
                                                         0.506394      -0.154145
                                                         0.238884      -0.115581
                                                         0.087337      -0.028372

                          1       4    4px               1.256768       0.313378
                                                         0.506394      -0.415360
                                                         0.238884      -0.022539
                                                         0.087337       0.078473
                          1       4    4py               1.256768       0.313378
                                                         0.506394      -0.415360
                                                         0.238884      -0.022539
                                                         0.087337       0.078473
                          1       4    4pz               1.256768       0.313378
                                                         0.506394      -0.415360
                                                         0.238884      -0.022539
                                                         0.087337       0.078473

                          1       5    4dx2              1.256768       0.325879
                                                         0.506394       0.163831
                                                         0.238884       0.044076
                                                         0.087337       0.010608
                          1       5    4dxy              1.256768       0.564439
                                                         0.506394       0.283764
                                                         0.238884       0.076342
                                                         0.087337       0.018373
                          1       5    4dxz              1.256768       0.564439
                                                         0.506394       0.283764
                                                         0.238884       0.076342
                                                         0.087337       0.018373
                          1       5    4dy2              1.256768       0.325879
                                                         0.506394       0.163831
                                                         0.238884       0.044076
                                                         0.087337       0.010608
                          1       5    4dyz              1.256768       0.564439
                                                         0.506394       0.283764
                                                         0.238884       0.076342
                                                         0.087337       0.018373
                          1       5    4dz2              1.256768       0.325879
                                                         0.506394       0.163831
                                                         0.238884       0.044076
                                                         0.087337       0.010608

       Atomic covalent radius [Angstrom]:                                  1.110

       Atomic van der Waals radius [Angstrom]:                             2.100

     GTH Potential information for                                    GTH-PBE-q4

       Description:                       Goedecker-Teter-Hutter pseudopotential
                                           Goedecker et al., PRB 54, 1703 (1996)
                                          Hartwigsen et al., PRB 58, 3641 (1998)
                                                      Krack, TCA 114, 145 (2005)

       Gaussian exponent of the core charge distribution:               2.582645
       Electronic configuration (s p d ...):                               2   2

       Parameters of the local part of the GTH pseudopotential:

                          rloc        C1          C2          C3          C4
                        0.440000   -6.269288

       Parameters of the non-local part of the GTH pseudopotential:

                   l      r(l)      h(i,j,l)

                   0    0.435634    8.951742   -2.706271
                                   -2.706271    3.493781
                   1    0.497942    2.431277


 MOLECULE KIND INFORMATION


 All atoms are their own molecule, skipping detailed information


 TOTAL NUMBERS AND MAXIMUM NUMBERS

  Total number of            - Atomic kinds:                                   1
                             - Atoms:                                        256
                             - Shell sets:                                   256
                             - Shells:                                      1280
                             - Primitive Cartesian functions:               1024
                             - Cartesian basis functions:                   3584
                             - Spherical basis functions:                   3328

  Maximum angular momentum of- Orbital basis functions:                        2
                             - Local part of the GTH pseudopotential:          0
                             - Non-local part of the GTH pseudopotential:      2


 MODULE QUICKSTEP: ATOMIC COORDINATES IN ANGSTROM

   Atom Kind Element         X             Y             Z       Z(eff)     Mass
      1    1 Si   14      0.000000      0.000000      0.000000   4.0000  28.0855
      2    1 Si   14      0.000000      2.715500      2.715500   4.0000  28.0855
      3    1 Si   14      2.715500      0.000000      2.715500   4.0000  28.0855
      4    1 Si   14      2.715500      2.715500      0.000000   4.0000  28.0855
      5    1 Si   14      1.357750      1.357750      1.357750   4.0000  28.0855
      6    1 Si   14      1.357750      4.073250      4.073250   4.0000  28.0855
      7    1 Si   14      4.073250      1.357750      4.073250   4.0000  28.0855
      8    1 Si   14      4.073250      4.073250      1.357750   4.0000  28.0855
      9    1 Si   14      0.000000      0.000000      5.431000   4.0000  28.0855
     10    1 Si   14      0.000000      2.715500      8.146500   4.0000  28.0855
     11    1 Si   14      2.715500      0.000000      8.146500   4.0000  28.0855
     12    1 Si   14      2.715500      2.715500      5.431000   4.0000  28.0855
     13    1 Si   14      1.357750      1.357750      6.788750   4.0000  28.0855
     14    1 Si   14      1.357750      4.073250      9.504250   4.0000  28.0855
     15    1 Si   14      4.073250      1.357750      9.504250   4.0000  28.0855
     16    1 Si   14      4.073250      4.073250      6.788750   4.0000  28.0855
     17    1 Si   14      0.000000      5.431000      0.000000   4.0000  28.0855
     18    1 Si   14      0.000000      8.146500      2.715500   4.0000  28.0855
     19    1 Si   14      2.715500      5.431000      2.715500   4.0000  28.0855
     20    1 Si   14      2.715500      8.146500      0.000000   4.0000  28.0855
     21    1 Si   14      1.357750      6.788750      1.357750   4.0000  28.0855
     22    1 Si   14      1.357750      9.504250      4.073250   4.0000  28.0855
     23    1 Si   14      4.073250      6.788750      4.073250   4.0000  28.0855
     24    1 Si   14      4.073250      9.504250      1.357750   4.0000  28.0855
     25    1 Si   14      0.000000      5.431000      5.431000   4.0000  28.0855
     26    1 Si   14      0.000000      8.146500      8.146500   4.0000  28.0855
     27    1 Si   14      2.715500      5.431000      8.146500   4.0000  28.0855
     28    1 Si   14      2.715500      8.146500      5.431000   4.0000  28.0855
     29    1 Si   14      1.357750      6.788750      6.788750   4.0000  28.0855
     30    1 Si   14      1.357750      9.504250      9.504250   4.0000  28.0855
     31    1 Si   14      4.073250      6.788750      9.504250   4.0000  28.0855
     32    1 Si   14      4.073250      9.504250      6.788750   4.0000  28.0855
     33    1 Si   14      0.000000     10.862000      0.000000   4.0000  28.0855
     34    1 Si   14      0.000000     13.577500      2.715500   4.0000  28.0855
     35    1 Si   14      2.715500     10.862000      2.715500   4.0000  28.0855
     36    1 Si   14      2.715500     13.577500      0.000000   4.0000  28.0855
     37    1 Si   14      1.357750     12.219750      1.357750   4.0000  28.0855
     38    1 Si   14      1.357750     14.935250      4.073250   4.0000  28.0855
     39    1 Si   14      4.073250     12.219750      4.073250   4.0000  28.0855
     40    1 Si   14      4.073250     14.935250      1.357750   4.0000  28.0855
     41    1 Si   14      0.000000     10.862000      5.431000   4.0000  28.0855
     42    1 Si   14      0.000000     13.577500      8.146500   4.0000  28.0855
     43    1 Si   14      2.715500     10.862000      8.146500   4.0000  28.0855
     44    1 Si   14      2.715500     13.577500      5.431000   4.0000  28.0855
     45    1 Si   14      1.357750     12.219750      6.788750   4.0000  28.0855
     46    1 Si   14      1.357750     14.935250      9.504250   4.0000  28.0855
     47    1 Si   14      4.073250     12.219750      9.504250   4.0000  28.0855
     48    1 Si   14      4.073250     14.935250      6.788750   4.0000  28.0855
     49    1 Si   14      0.000000     16.293000      0.000000   4.0000  28.0855
     50    1 Si   14      0.000000     19.008500      2.715500   4.0000  28.0855
     51    1 Si   14      2.715500     16.293000      2.715500   4.0000  28.0855
     52    1 Si   14      2.715500     19.008500      0.000000   4.0000  28.0855
     53    1 Si   14      1.357750     17.650750      1.357750   4.0000  28.0855
     54    1 Si   14      1.357750     20.366250      4.073250   4.0000  28.0855
     55    1 Si   14      4.073250     17.650750      4.073250   4.0000  28.0855
     56    1 Si   14      4.073250     20.366250      1.357750   4.0000  28.0855
     57    1 Si   14      0.000000     16.293000      5.431000   4.0000  28.0855
     58    1 Si   14      0.000000     19.008500      8.146500   4.0000  28.0855
     59    1 Si   14      2.715500     16.293000      8.146500   4.0000  28.0855
     60    1 Si   14      2.715500     19.008500      5.431000   4.0000  28.0855
     61    1 Si   14      1.357750     17.650750      6.788750   4.0000  28.0855
     62    1 Si   14      1.357750     20.366250      9.504250   4.0000  28.0855
     63    1 Si   14      4.073250     17.650750      9.504250   4.0000  28.0855
     64    1 Si   14      4.073250     20.366250      6.788750   4.0000  28.0855
     65    1 Si   14      5.431000      0.000000      0.000000   4.0000  28.0855
     66    1 Si   14      5.431000      2.715500      2.715500   4.0000  28.0855
     67    1 Si   14      8.146500      0.000000      2.715500   4.0000  28.0855
     68    1 Si   14      8.146500      2.715500      0.000000   4.0000  28.0855
     69    1 Si   14      6.788750      1.357750      1.357750   4.0000  28.0855
     70    1 Si   14      6.788750      4.073250      4.073250   4.0000  28.0855
     71    1 Si   14      9.504250      1.357750      4.073250   4.0000  28.0855
     72    1 Si   14      9.504250      4.073250      1.357750   4.0000  28.0855
     73    1 Si   14      5.431000      0.000000      5.431000   4.0000  28.0855
     74    1 Si   14      5.431000      2.715500      8.146500   4.0000  28.0855
     75    1 Si   14      8.146500      0.000000      8.146500   4.0000  28.0855
     76    1 Si   14      8.146500      2.715500      5.431000   4.0000  28.0855
     77    1 Si   14      6.788750      1.357750      6.788750   4.0000  28.0855
     78    1 Si   14      6.788750      4.073250      9.504250   4.0000  28.0855
     79    1 Si   14      9.504250      1.357750      9.504250   4.0000  28.0855
     80    1 Si   14      9.504250      4.073250      6.788750   4.0000  28.0855
     81    1 Si   14      5.431000      5.431000      0.000000   4.0000  28.0855
     82    1 Si   14      5.431000      8.146500      2.715500   4.0000  28.0855
     83    1 Si   14      8.146500      5.431000      2.715500   4.0000  28.0855
     84    1 Si   14      8.146500      8.146500      0.000000   4.0000  28.0855
     85    1 Si   14      6.788750      6.788750      1.357750   4.0000  28.0855
     86    1 Si   14      6.788750      9.504250      4.073250   4.0000  28.0855
     87    1 Si   14      9.504250      6.788750      4.073250   4.0000  28.0855
     88    1 Si   14      9.504250      9.504250      1.357750   4.0000  28.0855
     89    1 Si   14      5.431000      5.431000      5.431000   4.0000  28.0855
     90    1 Si   14      5.431000      8.146500      8.146500   4.0000  28.0855
     91    1 Si   14      8.146500      5.431000      8.146500   4.0000  28.0855
     92    1 Si   14      8.146500      8.146500      5.431000   4.0000  28.0855
     93    1 Si   14      6.788750      6.788750      6.788750   4.0000  28.0855
     94    1 Si   14      6.788750      9.504250      9.504250   4.0000  28.0855
     95    1 Si   14      9.504250      6.788750      9.504250   4.0000  28.0855
     96    1 Si   14      9.504250      9.504250      6.788750   4.0000  28.0855
     97    1 Si   14      5.431000     10.862000      0.000000   4.0000  28.0855
     98    1 Si   14      5.431000     13.577500      2.715500   4.0000  28.0855
     99    1 Si   14      8.146500     10.862000      2.715500   4.0000  28.0855
    100    1 Si   14      8.146500     13.577500      0.000000   4.0000  28.0855
    101    1 Si   14      6.788750     12.219750      1.357750   4.0000  28.0855
    102    1 Si   14      6.788750     14.935250      4.073250   4.0000  28.0855
    103    1 Si   14      9.504250     12.219750      4.073250   4.0000  28.0855
    104    1 Si   14      9.504250     14.935250      1.357750   4.0000  28.0855
    105    1 Si   14      5.431000     10.862000      5.431000   4.0000  28.0855
    106    1 Si   14      5.431000     13.577500      8.146500   4.0000  28.0855
    107    1 Si   14      8.146500     10.862000      8.146500   4.0000  28.0855
    108    1 Si   14      8.146500     13.577500      5.431000   4.0000  28.0855
    109    1 Si   14      6.788750     12.219750      6.788750   4.0000  28.0855
    110    1 Si   14      6.788750     14.935250      9.504250   4.0000  28.0855
    111    1 Si   14      9.504250     12.219750      9.504250   4.0000  28.0855
    112    1 Si   14      9.504250     14.935250      6.788750   4.0000  28.0855
    113    1 Si   14      5.431000     16.293000      0.000000   4.0000  28.0855
    114    1 Si   14      5.431000     19.008500      2.715500   4.0000  28.0855
    115    1 Si   14      8.146500     16.293000      2.715500   4.0000  28.0855
    116    1 Si   14      8.146500     19.008500      0.000000   4.0000  28.0855
    117    1 Si   14      6.788750     17.650750      1.357750   4.0000  28.0855
    118    1 Si   14      6.788750     20.366250      4.073250   4.0000  28.0855
    119    1 Si   14      9.504250     17.650750      4.073250   4.0000  28.0855
    120    1 Si   14      9.504250     20.366250      1.357750   4.0000  28.0855
    121    1 Si   14      5.431000     16.293000      5.431000   4.0000  28.0855
    122    1 Si   14      5.431000     19.008500      8.146500   4.0000  28.0855
    123    1 Si   14      8.146500     16.293000      8.146500   4.0000  28.0855
    124    1 Si   14      8.146500     19.008500      5.431000   4.0000  28.0855
    125    1 Si   14      6.788750     17.650750      6.788750   4.0000  28.0855
    126    1 Si   14      6.788750     20.366250      9.504250   4.0000  28.0855
    127    1 Si   14      9.504250     17.650750      9.504250   4.0000  28.0855
    128    1 Si   14      9.504250     20.366250      6.788750   4.0000  28.0855
    129    1 Si   14     10.862000      0.000000      0.000000   4.0000  28.0855
    130    1 Si   14     10.862000      2.715500      2.715500   4.0000  28.0855
    131    1 Si   14     13.577500      0.000000      2.715500   4.0000  28.0855
    132    1 Si   14     13.577500      2.715500      0.000000   4.0000  28.0855
    133    1 Si   14     12.219750      1.357750      1.357750   4.0000  28.0855
    134    1 Si   14     12.219750      4.073250      4.073250   4.0000  28.0855
    135    1 Si   14     14.935250      1.357750      4.073250   4.0000  28.0855
    136    1 Si   14     14.935250      4.073250      1.357750   4.0000  28.0855
    137    1 Si   14     10.862000      0.000000      5.431000   4.0000  28.0855
    138    1 Si   14     10.862000      2.715500      8.146500   4.0000  28.0855
    139    1 Si   14     13.577500      0.000000      8.146500   4.0000  28.0855
    140    1 Si   14     13.577500      2.715500      5.431000   4.0000  28.0855
    141    1 Si   14     12.219750      1.357750      6.788750   4.0000  28.0855
    142    1 Si   14     12.219750      4.073250      9.504250   4.0000  28.0855
    143    1 Si   14     14.935250      1.357750      9.504250   4.0000  28.0855
    144    1 Si   14     14.935250      4.073250      6.788750   4.0000  28.0855
    145    1 Si   14     10.862000      5.431000      0.000000   4.0000  28.0855
    146    1 Si   14     10.862000      8.146500      2.715500   4.0000  28.0855
    147    1 Si   14     13.577500      5.431000      2.715500   4.0000  28.0855
    148    1 Si   14     13.577500      8.146500      0.000000   4.0000  28.0855
    149    1 Si   14     12.219750      6.788750      1.357750   4.0000  28.0855
    150    1 Si   14     12.219750      9.504250      4.073250   4.0000  28.0855
    151    1 Si   14     14.935250      6.788750      4.073250   4.0000  28.0855
    152    1 Si   14     14.935250      9.504250      1.357750   4.0000  28.0855
    153    1 Si   14     10.862000      5.431000      5.431000   4.0000  28.0855
    154    1 Si   14     10.862000      8.146500      8.146500   4.0000  28.0855
    155    1 Si   14     13.577500      5.431000      8.146500   4.0000  28.0855
    156    1 Si   14     13.577500      8.146500      5.431000   4.0000  28.0855
    157    1 Si   14     12.219750      6.788750      6.788750   4.0000  28.0855
    158    1 Si   14     12.219750      9.504250      9.504250   4.0000  28.0855
    159    1 Si   14     14.935250      6.788750      9.504250   4.0000  28.0855
    160    1 Si   14     14.935250      9.504250      6.788750   4.0000  28.0855
    161    1 Si   14     10.862000     10.862000      0.000000   4.0000  28.0855
    162    1 Si   14     10.862000     13.577500      2.715500   4.0000  28.0855
    163    1 Si   14     13.577500     10.862000      2.715500   4.0000  28.0855
    164    1 Si   14     13.577500     13.577500      0.000000   4.0000  28.0855
    165    1 Si   14     12.219750     12.219750      1.357750   4.0000  28.0855
    166    1 Si   14     12.219750     14.935250      4.073250   4.0000  28.0855
    167    1 Si   14     14.935250     12.219750      4.073250   4.0000  28.0855
    168    1 Si   14     14.935250     14.935250      1.357750   4.0000  28.0855
    169    1 Si   14     10.862000     10.862000      5.431000   4.0000  28.0855
    170    1 Si   14     10.862000     13.577500      8.146500   4.0000  28.0855
    171    1 Si   14     13.577500     10.862000      8.146500   4.0000  28.0855
    172    1 Si   14     13.577500     13.577500      5.431000   4.0000  28.0855
    173    1 Si   14     12.219750     12.219750      6.788750   4.0000  28.0855
    174    1 Si   14     12.219750     14.935250      9.504250   4.0000  28.0855
    175    1 Si   14     14.935250     12.219750      9.504250   4.0000  28.0855
    176    1 Si   14     14.935250     14.935250      6.788750   4.0000  28.0855
    177    1 Si   14     10.862000     16.293000      0.000000   4.0000  28.0855
    178    1 Si   14     10.862000     19.008500      2.715500   4.0000  28.0855
    179    1 Si   14     13.577500     16.293000      2.715500   4.0000  28.0855
    180    1 Si   14     13.577500     19.008500      0.000000   4.0000  28.0855
    181    1 Si   14     12.219750     17.650750      1.357750   4.0000  28.0855
    182    1 Si   14     12.219750     20.366250      4.073250   4.0000  28.0855
    183    1 Si   14     14.935250     17.650750      4.073250   4.0000  28.0855
    184    1 Si   14     14.935250     20.366250      1.357750   4.0000  28.0855
    185    1 Si   14     10.862000     16.293000      5.431000   4.0000  28.0855
    186    1 Si   14     10.862000     19.008500      8.146500   4.0000  28.0855
    187    1 Si   14     13.577500     16.293000      8.146500   4.0000  28.0855
    188    1 Si   14     13.577500     19.008500      5.431000   4.0000  28.0855
    189    1 Si   14     12.219750     17.650750      6.788750   4.0000  28.0855
    190    1 Si   14     12.219750     20.366250      9.504250   4.0000  28.0855
    191    1 Si   14     14.935250     17.650750      9.504250   4.0000  28.0855
    192    1 Si   14     14.935250     20.366250      6.788750   4.0000  28.0855
    193    1 Si   14     16.293000      0.000000      0.000000   4.0000  28.0855
    194    1 Si   14     16.293000      2.715500      2.715500   4.0000  28.0855
    195    1 Si   14     19.008500      0.000000      2.715500   4.0000  28.0855
    196    1 Si   14     19.008500      2.715500      0.000000   4.0000  28.0855
    197    1 Si   14     17.650750      1.357750      1.357750   4.0000  28.0855
    198    1 Si   14     17.650750      4.073250      4.073250   4.0000  28.0855
    199    1 Si   14     20.366250      1.357750      4.073250   4.0000  28.0855
    200    1 Si   14     20.366250      4.073250      1.357750   4.0000  28.0855
    201    1 Si   14     16.293000      0.000000      5.431000   4.0000  28.0855
    202    1 Si   14     16.293000      2.715500      8.146500   4.0000  28.0855
    203    1 Si   14     19.008500      0.000000      8.146500   4.0000  28.0855
    204    1 Si   14     19.008500      2.715500      5.431000   4.0000  28.0855
    205    1 Si   14     17.650750      1.357750      6.788750   4.0000  28.0855
    206    1 Si   14     17.650750      4.073250      9.504250   4.0000  28.0855
    207    1 Si   14     20.366250      1.357750      9.504250   4.0000  28.0855
    208    1 Si   14     20.366250      4.073250      6.788750   4.0000  28.0855
    209    1 Si   14     16.293000      5.431000      0.000000   4.0000  28.0855
    210    1 Si   14     16.293000      8.146500      2.715500   4.0000  28.0855
    211    1 Si   14     19.008500      5.431000      2.715500   4.0000  28.0855
    212    1 Si   14     19.008500      8.146500      0.000000   4.0000  28.0855
    213    1 Si   14     17.650750      6.788750      1.357750   4.0000  28.0855
    214    1 Si   14     17.650750      9.504250      4.073250   4.0000  28.0855
    215    1 Si   14     20.366250      6.788750      4.073250   4.0000  28.0855
    216    1 Si   14     20.366250      9.504250      1.357750   4.0000  28.0855
    217    1 Si   14     16.293000      5.431000      5.431000   4.0000  28.0855
    218    1 Si   14     16.293000      8.146500      8.146500   4.0000  28.0855
    219    1 Si   14     19.008500      5.431000      8.146500   4.0000  28.0855
    220    1 Si   14     19.008500      8.146500      5.431000   4.0000  28.0855
    221    1 Si   14     17.650750      6.788750      6.788750   4.0000  28.0855
    222    1 Si   14     17.650750      9.504250      9.504250   4.0000  28.0855
    223    1 Si   14     20.366250      6.788750      9.504250   4.0000  28.0855
    224    1 Si   14     20.366250      9.504250      6.788750   4.0000  28.0855
    225    1 Si   14     16.293000     10.862000      0.000000   4.0000  28.0855
    226    1 Si   14     16.293000     13.577500      2.715500   4.0000  28.0855
    227    1 Si   14     19.008500     10.862000      2.715500   4.0000  28.0855
    228    1 Si   14     19.008500     13.577500      0.000000   4.0000  28.0855
    229    1 Si   14     17.650750     12.219750      1.357750   4.0000  28.0855
    230    1 Si   14     17.650750     14.935250      4.073250   4.0000  28.0855
    231    1 Si   14     20.366250     12.219750      4.073250   4.0000  28.0855
    232    1 Si   14     20.366250     14.935250      1.357750   4.0000  28.0855
    233    1 Si   14     16.293000     10.862000      5.431000   4.0000  28.0855
    234    1 Si   14     16.293000     13.577500      8.146500   4.0000  28.0855
    235    1 Si   14     19.008500     10.862000      8.146500   4.0000  28.0855
    236    1 Si   14     19.008500     13.577500      5.431000   4.0000  28.0855
    237    1 Si   14     17.650750     12.219750      6.788750   4.0000  28.0855
    238    1 Si   14     17.650750     14.935250      9.504250   4.0000  28.0855
    239    1 Si   14     20.366250     12.219750      9.504250   4.0000  28.0855
    240    1 Si   14     20.366250     14.935250      6.788750   4.0000  28.0855
    241    1 Si   14     16.293000     16.293000      0.000000   4.0000  28.0855
    242    1 Si   14     16.293000     19.008500      2.715500   4.0000  28.0855
    243    1 Si   14     19.008500     16.293000      2.715500   4.0000  28.0855
    244    1 Si   14     19.008500     19.008500      0.000000   4.0000  28.0855
    245    1 Si   14     17.650750     17.650750      1.357750   4.0000  28.0855
    246    1 Si   14     17.650750     20.366250      4.073250   4.0000  28.0855
    247    1 Si   14     20.366250     17.650750      4.073250   4.0000  28.0855
    248    1 Si   14     20.366250     20.366250      1.357750   4.0000  28.0855
    249    1 Si   14     16.293000     16.293000      5.431000   4.0000  28.0855
    250    1 Si   14     16.293000     19.008500      8.146500   4.0000  28.0855
    251    1 Si   14     19.008500     16.293000      8.146500   4.0000  28.0855
    252    1 Si   14     19.008500     19.008500      5.431000   4.0000  28.0855
    253    1 Si   14     17.650750     17.650750      6.788750   4.0000  28.0855
    254    1 Si   14     17.650750     20.366250      9.504250   4.0000  28.0855
    255    1 Si   14     20.366250     17.650750      9.504250   4.0000  28.0855
    256    1 Si   14     20.366250     20.366250      6.788750   4.0000  28.0855



 SCF PARAMETERS         Density guess:                                    ATOMIC
                        --------------------------------------------------------
                        max_scf:                                              50
                        max_scf_history:                                       0
                        max_diis:                                              4
                        --------------------------------------------------------
                        eps_scf:                                        1.00E-06
                        eps_scf_history:                                0.00E+00
                        eps_diis:                                       1.00E-01
                        eps_eigval:                                     1.00E-05
                        --------------------------------------------------------
                        level_shift [a.u.]:                             0.000000
                        --------------------------------------------------------
                        Outer loop SCF in use 
                        No variables optimised in outer loop
                        eps_scf                                         1.00E-06
                        max_scf                                               50
                        No outer loop optimization
                        step_size                                       5.00E-01

 PW_GRID| Information for grid number                                          1
 PW_GRID| Grid distributed over                                    32 processors
 PW_GRID| Real space group dimensions                                    32    1
 PW_GRID| the grid is blocked:                                                NO
 PW_GRID| Cutoff [a.u.]                                                    300.0
 PW_GRID| spherical cutoff:                                                   NO
 PW_GRID|   Bounds   1           -162     161                Points:         324
 PW_GRID|   Bounds   2           -162     161                Points:         324
 PW_GRID|   Bounds   3            -81      80                Points:         162
 PW_GRID| Volume element (a.u.^3)  0.2034E-02     Volume (a.u.^3)     34592.8221
 PW_GRID| Grid span                                                    FULLSPACE
 PW_GRID|   Distribution                         Average         Max         Min
 PW_GRID|   G-Vectors                           531441.0      531684      531360
 PW_GRID|   G-Rays                                1640.2        1641        1640
 PW_GRID|   Real Space Points                   531441.0      577368      524880

 PW_GRID| Information for grid number                                          2
 PW_GRID| Number of the reference grid                                         1
 PW_GRID| Grid distributed over                                    32 processors
 PW_GRID| Real space group dimensions                                    32    1
 PW_GRID| the grid is blocked:                                                NO
 PW_GRID| Cutoff [a.u.]                                                    100.0
 PW_GRID| spherical cutoff:                                                   NO
 PW_GRID|   Bounds   1            -96      95                Points:         192
 PW_GRID|   Bounds   2            -96      95                Points:         192
 PW_GRID|   Bounds   3            -48      47                Points:          96
 PW_GRID| Volume element (a.u.^3)  0.9775E-02     Volume (a.u.^3)     34592.8221
 PW_GRID| Grid span                                                    FULLSPACE
 PW_GRID|   Distribution                         Average         Max         Min
 PW_GRID|   G-Vectors                           110592.0      112128      109056
 PW_GRID|   G-Rays                                 576.0         584         568
 PW_GRID|   Real Space Points                   110592.0      110592      110592

 PW_GRID| Information for grid number                                          3
 PW_GRID| Number of the reference grid                                         1
 PW_GRID| Grid distributed over                                    32 processors
 PW_GRID| Real space group dimensions                                    32    1
 PW_GRID| the grid is blocked:                                                NO
 PW_GRID| Cutoff [a.u.]                                                     33.3
 PW_GRID| spherical cutoff:                                                   NO
 PW_GRID|   Bounds   1            -54      53                Points:         108
 PW_GRID|   Bounds   2            -54      53                Points:         108
 PW_GRID|   Bounds   3            -27      26                Points:          54
 PW_GRID| Volume element (a.u.^3)  0.5492E-01     Volume (a.u.^3)     34592.8221
 PW_GRID| Grid span                                                    FULLSPACE
 PW_GRID|   Distribution                         Average         Max         Min
 PW_GRID|   G-Vectors                            19683.0       20520       18792
 PW_GRID|   G-Rays                                 182.2         190         174
 PW_GRID|   Real Space Points                    19683.0       23328       17496

 PW_GRID| Information for grid number                                          4
 PW_GRID| Number of the reference grid                                         1
 PW_GRID| Grid distributed over                                    32 processors
 PW_GRID| Real space group dimensions                                    32    1
 PW_GRID| the grid is blocked:                                                NO
 PW_GRID| Cutoff [a.u.]                                                     11.1
 PW_GRID| spherical cutoff:                                                   NO
 PW_GRID|   Bounds   1            -32      31                Points:          64
 PW_GRID|   Bounds   2            -32      31                Points:          64
 PW_GRID|   Bounds   3            -16      15                Points:          32
 PW_GRID| Volume element (a.u.^3)  0.2639         Volume (a.u.^3)     34592.8221
 PW_GRID| Grid span                                                    FULLSPACE
 PW_GRID|   Distribution                         Average         Max         Min
 PW_GRID|   G-Vectors                             4096.0        4416        3776
 PW_GRID|   G-Rays                                  64.0          69          59
 PW_GRID|   Real Space Points                     4096.0        4096        4096

 POISSON| Solver                                                        PERIODIC
 POISSON| Periodicity                                                        XYZ

 RS_GRID| Information for grid number                                          1
 RS_GRID|   Bounds   1           -162     161                Points:         324
 RS_GRID|   Bounds   2           -162     161                Points:         324
 RS_GRID|   Bounds   3            -81      80                Points:         162
 RS_GRID| Real space distribution over                                  4 groups
 RS_GRID| Real space distribution along direction                              1
 RS_GRID| Border size                                                         29
 RS_GRID| Real space distribution over                                  8 groups
 RS_GRID| Real space distribution along direction                              2
 RS_GRID| Border size                                                         29
 RS_GRID|   Distribution                         Average         Max         Min
 RS_GRID|   Planes                                 139.0         139         139
 RS_GRID|   Distribution                         Average         Max         Min
 RS_GRID|   Planes                                  98.5          99          98

 RS_GRID| Information for grid number                                          2
 RS_GRID|   Bounds   1            -96      95                Points:         192
 RS_GRID|   Bounds   2            -96      95                Points:         192
 RS_GRID|   Bounds   3            -48      47                Points:          96
 RS_GRID| Real space distribution over                                  4 groups
 RS_GRID| Real space distribution along direction                              1
 RS_GRID| Border size                                                         26
 RS_GRID| Real space distribution over                                  8 groups
 RS_GRID| Real space distribution along direction                              2
 RS_GRID| Border size                                                         26
 RS_GRID|   Distribution                         Average         Max         Min
 RS_GRID|   Planes                                 100.0         100         100
 RS_GRID|   Distribution                         Average         Max         Min
 RS_GRID|   Planes                                  76.0          76          76

 RS_GRID| Information for grid number                                          3
 RS_GRID|   Bounds   1            -54      53                Points:         108
 RS_GRID|   Bounds   2            -54      53                Points:         108
 RS_GRID|   Bounds   3            -27      26                Points:          54
 RS_GRID| Real space fully replicated
 RS_GRID| Group size                                                           1

 RS_GRID| Information for grid number                                          4
 RS_GRID|   Bounds   1            -32      31                Points:          64
 RS_GRID|   Bounds   2            -32      31                Points:          64
 RS_GRID|   Bounds   3            -16      15                Points:          32
 RS_GRID| Real space fully replicated
 RS_GRID| Group size                                                           1

 Number of electrons:                                                       1024
 Number of occupied orbitals:                                                512
 Number of molecular orbitals:                                               512

 Number of orbital functions:                                               3328
 Number of independent orbital functions:                                   3328

 Extrapolation method: initial_guess

 Atomic guess: The first density matrix is obtained in terms of atomic orbitals
               and electronic configurations assigned to each atomic kind

 Guess for atomic kind: Si

 Electronic structure
    Total number of core electrons                                         10.00
    Total number of valence electrons                                       4.00
    Total number of electrons                                              14.00
    Multiplicity                                                   not specified
    S   [  2.00  2.00] 2.00
    P   [  6.00] 2.00
 

 *******************************************************************************
                  Iteration          Convergence                     Energy [au]
 *******************************************************************************
                          1        0.526541E-01                  -3.659692963728
                          2        0.125823E-01                  -3.661785675622
                          3        0.408986E-04                  -3.661911567360
                          4        0.675570E-07                  -3.661911568709

 Energy components [Hartree]           Total Energy ::           -3.661911568709
                                        Band Energy ::           -0.941881516273
                                     Kinetic Energy ::            1.409736465412
                                   Potential Energy ::           -5.071648034121
                                      Virial (-V/T) ::            3.597585902439
                                        Core Energy ::           -5.690149137281
                                          XC Energy ::           -0.992569238249
                                     Coulomb Energy ::            3.020806806821
                       Total Pseudopotential Energy ::           -7.143143335066
                       Local Pseudopotential Energy ::           -8.006124475851
                    Nonlocal Pseudopotential Energy ::            0.862981140786
                                        Confinement ::            0.432577323720

 Orbital energies  State     L     Occupation   Energy[a.u.]          Energy[eV]

                       1     0          2.000      -0.357276           -9.721984
 
                       1     1          2.000      -0.113664           -3.092965
 

 Total Electron Density at R=0:                                         0.000026
 Re-scaling the density matrix to get the right number of electrons
                  # Electrons              Trace(P)               Scaling factor
                         1024              1024.000                        1.000


 SCF WAVEFUNCTION OPTIMIZATION

  ----------------------------------- OT ---------------------------------------
  Minimizer      : DIIS                : direct inversion
                                         in the iterative subspace
                                         using   7 DIIS vectors
                                         safer DIIS on
  Preconditioner : FULL_SINGLE_INVERSE : inversion of 
                                         H + eS - 2*(Sc)(c^T*H*c+const)(Sc)^T
  Precond_solver : DEFAULT
  stepsize       :    0.08000000                  energy_gap     :    0.05000000
  eps_taylor     :   0.10000E-15                  max_taylor     :             4
  ----------------------------------- OT ---------------------------------------

  Step     Update method      Time    Convergence         Total energy    Change
  ------------------------------------------------------------------------------
     1 OT DIIS     0.80E-01    1.2     0.01208325      -962.4625374435 -9.62E+02
     2 OT DIIS     0.80E-01    1.2     0.01364188      -979.0151218171 -1.66E+01
     3 OT DIIS     0.80E-01    1.2     0.02010788      -981.5353994639 -2.52E+00
     4 OT DIIS     0.80E-01    1.2     0.00874275      -995.1429280855 -1.36E+01
     5 OT DIIS     0.80E-01    1.2     0.00691762     -1001.3260234229 -6.18E+00
     6 OT DIIS     0.80E-01    1.2     0.00479294     -1003.7809006788 -2.45E+00
     7 OT DIIS     0.80E-01    1.2     0.00429449     -1004.6381494664 -8.57E-01
     8 OT DIIS     0.80E-01    1.2     0.00231883     -1005.5103194506 -8.72E-01
     9 OT DIIS     0.80E-01    1.2     0.00144163     -1006.2613788337 -7.51E-01
    10 OT DIIS     0.80E-01    1.2     0.00122869     -1006.5866859552 -3.25E-01
    11 OT DIIS     0.80E-01    1.2     0.00103440     -1006.8279723106 -2.41E-01
    12 OT DIIS     0.80E-01    1.2     0.00080045     -1007.0116810631 -1.84E-01
    13 OT DIIS     0.80E-01    1.2     0.00074156     -1007.1260886113 -1.14E-01
    14 OT DIIS     0.80E-01    1.2     0.00057271     -1007.2422954320 -1.16E-01
    15 OT DIIS     0.80E-01    1.2     0.00046228     -1007.3367873844 -9.45E-02
    16 OT DIIS     0.80E-01    1.2     0.00039359     -1007.4078605078 -7.11E-02
    17 OT DIIS     0.80E-01    1.2     0.00031478     -1007.4693450760 -6.15E-02
    18 OT DIIS     0.80E-01    1.2     0.00026742     -1007.5041751154 -3.48E-02
    19 OT DIIS     0.80E-01    1.2     0.00024147     -1007.5358269145 -3.17E-02
    20 OT DIIS     0.80E-01    1.2     0.00020524     -1007.5547573702 -1.89E-02
    21 OT DIIS     0.80E-01    1.3     0.00018127     -1007.5710837364 -1.63E-02
    22 OT DIIS     0.80E-01    1.2     0.00016483     -1007.5875968968 -1.65E-02
    23 OT DIIS     0.80E-01    1.2     0.00014659     -1007.5986474843 -1.11E-02
    24 OT DIIS     0.80E-01    1.2     0.00013058     -1007.6097668510 -1.11E-02
    25 OT DIIS     0.80E-01    1.2     0.00011786     -1007.6209134651 -1.11E-02
    26 OT DIIS     0.80E-01    1.2     0.00010314     -1007.6297402561 -8.83E-03
    27 OT DIIS     0.80E-01    1.2     0.00009395     -1007.6367888895 -7.05E-03
    28 OT DIIS     0.80E-01    1.2     0.00008639     -1007.6409493036 -4.16E-03
    29 OT DIIS     0.80E-01    1.2     0.00007597     -1007.6460182813 -5.07E-03
    30 OT DIIS     0.80E-01    1.2     0.00006888     -1007.6497478807 -3.73E-03
    31 OT DIIS     0.80E-01    1.2     0.00006227     -1007.6528940214 -3.15E-03
    32 OT DIIS     0.80E-01    1.2     0.00005543     -1007.6554428304 -2.55E-03
    33 OT DIIS     0.80E-01    1.2     0.00005057     -1007.6571645965 -1.72E-03
    34 OT DIIS     0.80E-01    1.2     0.00004637     -1007.6587144849 -1.55E-03
    35 OT DIIS     0.80E-01    1.2     0.00004145     -1007.6602766939 -1.56E-03
    36 OT DIIS     0.80E-01    1.2     0.00003836     -1007.6614061322 -1.13E-03
    37 OT DIIS     0.80E-01    1.2     0.00003558     -1007.6622420168 -8.36E-04
    38 OT DIIS     0.80E-01    1.2     0.00003323     -1007.6628399722 -5.98E-04
    39 OT DIIS     0.80E-01    1.2     0.00003046     -1007.6637000086 -8.60E-04
    40 OT DIIS     0.80E-01    1.2     0.00002847     -1007.6643050251 -6.05E-04
    41 OT DIIS     0.80E-01    1.2     0.00002642     -1007.6648758936 -5.71E-04
    42 OT DIIS     0.80E-01    1.2     0.00002485     -1007.6653147755 -4.39E-04
    43 OT DIIS     0.80E-01    1.2     0.00002346     -1007.6657102595 -3.95E-04
    44 OT DIIS     0.80E-01    1.2     0.00002205     -1007.6661409467 -4.31E-04
    45 OT DIIS     0.80E-01    1.2     0.00002058     -1007.6665938051 -4.53E-04
    46 OT DIIS     0.80E-01    1.2     0.00001952     -1007.6669079014 -3.14E-04
    47 OT DIIS     0.80E-01    1.2     0.00001844     -1007.6671484845 -2.41E-04
    48 OT DIIS     0.80E-01    1.2     0.00001706     -1007.6675052843 -3.57E-04
    49 OT DIIS     0.80E-01    1.2     0.00001569     -1007.6678570068 -3.52E-04
    50 OT DIIS     0.80E-01    1.2     0.00001487     -1007.6680364869 -1.79E-04

  Leaving inner SCF loop after reaching    50 steps.


  Electronic density on regular grids:      -1024.0000000000        0.0000000000
  Core density on regular grids:             1023.9999999980       -0.0000000020
  Total charge density on r-space grids:       -0.0000000020
  Total charge density g-space grids:          -0.0000000020

  Overlap energy of the core charge distribution:               0.00000000169724
  Self energy of the core charge distribution:              -2626.04606160410231
  Core Hamiltonian energy:                                    553.45186358226897
  Hartree energy:                                            1373.29648752326830
  Exchange-correlation energy:                               -308.37032599006352

  Total energy:                                             -1007.66803648693121

  outer SCF iter =    1 RMS gradient =   0.15E-04 energy =      -1007.6680364869

  ----------------------------------- OT ---------------------------------------
  Minimizer      : DIIS                : direct inversion
                                         in the iterative subspace
                                         using   7 DIIS vectors
                                         safer DIIS on
  Preconditioner : FULL_SINGLE_INVERSE : inversion of 
                                         H + eS - 2*(Sc)(c^T*H*c+const)(Sc)^T
  Precond_solver : DEFAULT
  stepsize       :    0.08000000                  energy_gap     :    0.05000000
  eps_taylor     :   0.10000E-15                  max_taylor     :             4
  ----------------------------------- OT ---------------------------------------

  Step     Update method      Time    Convergence         Total energy    Change
  ------------------------------------------------------------------------------
     1 OT DIIS     0.80E-01    2.6     0.00007948     -1007.6682000520 -1.64E-04
     2 OT DIIS     0.80E-01    1.2     0.00006635     -1007.6689881132 -7.88E-04
     3 OT DIIS     0.80E-01    1.2     0.00003038     -1007.6707662838 -1.78E-03
     4 OT DIIS     0.80E-01    1.2     0.00002438     -1007.6709002416 -1.34E-04
     5 OT DIIS     0.80E-01    1.2     0.00001714     -1007.6711256019 -2.25E-04
     6 OT DIIS     0.80E-01    1.2     0.00001402     -1007.6712280940 -1.02E-04
     7 OT DIIS     0.80E-01    1.2     0.00001099     -1007.6713227616 -9.47E-05
     8 OT DIIS     0.80E-01    1.2     0.00000911     -1007.6713756127 -5.29E-05
     9 OT DIIS     0.80E-01    1.2     0.00000760     -1007.6714131759 -3.76E-05
    10 OT DIIS     0.80E-01    1.2     0.00000535     -1007.6714588053 -4.56E-05
    11 OT DIIS     0.80E-01    1.2     0.00000442     -1007.6714737377 -1.49E-05
    12 OT DIIS     0.80E-01    1.2     0.00000374     -1007.6714819355 -8.20E-06
    13 OT DIIS     0.80E-01    1.2     0.00000278     -1007.6714893571 -7.42E-06
    14 OT DIIS     0.80E-01    1.2     0.00000225     -1007.6714926817 -3.32E-06
    15 OT DIIS     0.80E-01    1.2     0.00000177     -1007.6714946622 -1.98E-06
    16 OT DIIS     0.80E-01    1.2     0.00000144     -1007.6714956176 -9.55E-07
    17 OT DIIS     0.80E-01    1.2     0.00000118     -1007.6714962245 -6.07E-07
    18 OT DIIS     0.80E-01    1.2     0.00000095     -1007.6714966195 -3.95E-07

  *** SCF run converged in    18 steps ***


  Electronic density on regular grids:      -1024.0000000148       -0.0000000148
  Core density on regular grids:             1023.9999999980       -0.0000000020
  Total charge density on r-space grids:       -0.0000000168
  Total charge density g-space grids:          -0.0000000168

  Overlap energy of the core charge distribution:               0.00000000169724
  Self energy of the core charge distribution:              -2626.04606160410231
  Core Hamiltonian energy:                                    553.45500167815078
  Hartree energy:                                            1373.29284120272359
  Exchange-correlation energy:                               -308.37327789799701

  Total energy:                                             -1007.67149661952772

  outer SCF iter =    2 RMS gradient =   0.95E-06 energy =      -1007.6714966195
  outer SCF loop converged in   2 iterations or   68 steps


 !-----------------------------------------------------------------------------!
                     Mulliken Population Analysis

 #  Atom  Element  Kind  Atomic population                           Net charge
       1     Si       1          4.000013                             -0.000013
       2     Si       1          3.999990                              0.000010
       3     Si       1          4.000004                             -0.000004
       4     Si       1          3.999994                              0.000006
       5     Si       1          3.999995                              0.000005
       6     Si       1          4.000003                             -0.000003
       7     Si       1          3.999988                              0.000012
       8     Si       1          4.000011                             -0.000011
       9     Si       1          4.000015                             -0.000015
      10     Si       1          3.999991                              0.000009
      11     Si       1          4.000003                             -0.000003
      12     Si       1          4.000000                              0.000000
      13     Si       1          3.999991                              0.000009
      14     Si       1          4.000004                             -0.000004
      15     Si       1          3.999996                              0.000004
      16     Si       1          4.000005                             -0.000005
      17     Si       1          3.999998                              0.000002
      18     Si       1          4.000001                             -0.000001
      19     Si       1          3.999991                              0.000009
      20     Si       1          4.000005                             -0.000005
      21     Si       1          4.000004                             -0.000004
      22     Si       1          3.999992                              0.000008
      23     Si       1          3.999998                              0.000002
      24     Si       1          3.999999                              0.000001
      25     Si       1          4.000001                             -0.000001
      26     Si       1          4.000001                             -0.000001
      27     Si       1          3.999996                              0.000004
      28     Si       1          4.000005                             -0.000005
      29     Si       1          4.000003                             -0.000003
      30     Si       1          3.999996                              0.000004
      31     Si       1          3.999995                              0.000005
      32     Si       1          4.000001                             -0.000001
      33     Si       1          4.000000                             -0.000000
      34     Si       1          3.999998                              0.000002
      35     Si       1          4.000004                             -0.000004
      36     Si       1          3.999996                              0.000004
      37     Si       1          4.000003                             -0.000003
      38     Si       1          4.000000                             -0.000000
      39     Si       1          3.999993                              0.000007
      40     Si       1          4.000004                             -0.000004
      41     Si       1          4.000005                             -0.000005
      42     Si       1          4.000001                             -0.000001
      43     Si       1          3.999999                              0.000001
      44     Si       1          4.000001                             -0.000001
      45     Si       1          3.999998                              0.000002
      46     Si       1          4.000000                             -0.000000
      47     Si       1          4.000000                             -0.000000
      48     Si       1          3.999998                              0.000002
      49     Si       1          4.000007                             -0.000007
      50     Si       1          3.999988                              0.000012
      51     Si       1          3.999995                              0.000005
      52     Si       1          3.999994                              0.000006
      53     Si       1          4.000001                             -0.000001
      54     Si       1          4.000000                             -0.000000
      55     Si       1          3.999999                              0.000001
      56     Si       1          3.999996                              0.000004
      57     Si       1          4.000010                             -0.000010
      58     Si       1          3.999988                              0.000012
      59     Si       1          4.000001                             -0.000001
      60     Si       1          3.999995                              0.000005
      61     Si       1          3.999996                              0.000004
      62     Si       1          4.000003                             -0.000003
      63     Si       1          3.999997                              0.000003
      64     Si       1          3.999993                              0.000007
      65     Si       1          4.000010                             -0.000010
      66     Si       1          3.999992                              0.000008
      67     Si       1          3.999992                              0.000008
      68     Si       1          4.000001                             -0.000001
      69     Si       1          3.999996                              0.000004
      70     Si       1          4.000004                             -0.000004
      71     Si       1          4.000007                             -0.000007
      72     Si       1          4.000003                             -0.000003
      73     Si       1          4.000014                             -0.000014
      74     Si       1          3.999992                              0.000008
      75     Si       1          3.999999                              0.000001
      76     Si       1          3.999999                              0.000001
      77     Si       1          3.999992                              0.000008
      78     Si       1          4.000006                             -0.000006
      79     Si       1          4.000004                             -0.000004
      80     Si       1          4.000001                             -0.000001
      81     Si       1          4.000002                             -0.000002
      82     Si       1          3.999999                              0.000001
      83     Si       1          3.999995                              0.000005
      84     Si       1          3.999999                              0.000001
      85     Si       1          4.000002                             -0.000002
      86     Si       1          3.999999                              0.000001
      87     Si       1          4.000001                             -0.000001
      88     Si       1          3.999999                              0.000001
      89     Si       1          4.000005                             -0.000005
      90     Si       1          4.000003                             -0.000003
      91     Si       1          3.999991                              0.000009
      92     Si       1          4.000006                             -0.000006
      93     Si       1          3.999997                              0.000003
      94     Si       1          4.000000                             -0.000000
      95     Si       1          4.000007                             -0.000007
      96     Si       1          3.999995                              0.000005
      97     Si       1          3.999999                              0.000001
      98     Si       1          3.999996                              0.000004
      99     Si       1          4.000004                             -0.000004
     100     Si       1          4.000000                             -0.000000
     101     Si       1          4.000008                             -0.000008
     102     Si       1          4.000001                             -0.000001
     103     Si       1          3.999998                              0.000002
     104     Si       1          4.000006                             -0.000006
     105     Si       1          4.000002                             -0.000002
     106     Si       1          3.999997                              0.000003
     107     Si       1          4.000009                             -0.000009
     108     Si       1          4.000000                             -0.000000
     109     Si       1          4.000004                             -0.000004
     110     Si       1          4.000004                             -0.000004
     111     Si       1          3.999996                              0.000004
     112     Si       1          4.000004                             -0.000004
     113     Si       1          3.999996                              0.000004
     114     Si       1          3.999994                              0.000006
     115     Si       1          4.000002                             -0.000002
     116     Si       1          4.000004                             -0.000004
     117     Si       1          4.000007                             -0.000007
     118     Si       1          3.999993                              0.000007
     119     Si       1          3.999996                              0.000004
     120     Si       1          4.000004                             -0.000004
     121     Si       1          3.999997                              0.000003
     122     Si       1          3.999997                              0.000003
     123     Si       1          3.999999                              0.000001
     124     Si       1          4.000008                             -0.000008
     125     Si       1          4.000004                             -0.000004
     126     Si       1          3.999995                              0.000005
     127     Si       1          4.000004                             -0.000004
     128     Si       1          3.999996                              0.000004
     129     Si       1          3.999996                              0.000004
     130     Si       1          3.999997                              0.000003
     131     Si       1          3.999999                              0.000001
     132     Si       1          4.000003                             -0.000003
     133     Si       1          4.000011                             -0.000011
     134     Si       1          4.000001                             -0.000001
     135     Si       1          3.999999                              0.000001
     136     Si       1          3.999996                              0.000004
     137     Si       1          3.999998                              0.000002
     138     Si       1          4.000000                             -0.000000
     139     Si       1          3.999995                              0.000005
     140     Si       1          4.000006                             -0.000006
     141     Si       1          4.000006                             -0.000006
     142     Si       1          4.000002                             -0.000002
     143     Si       1          4.000006                             -0.000006
     144     Si       1          3.999989                              0.000011
     145     Si       1          4.000005                             -0.000005
     146     Si       1          3.999991                              0.000009
     147     Si       1          3.999999                              0.000001
     148     Si       1          3.999995                              0.000005
     149     Si       1          4.000004                             -0.000004
     150     Si       1          3.999999                              0.000001
     151     Si       1          4.000005                             -0.000005
     152     Si       1          3.999999                              0.000001
     153     Si       1          4.000009                             -0.000009
     154     Si       1          3.999992                              0.000008
     155     Si       1          4.000004                             -0.000004
     156     Si       1          3.999994                              0.000006
     157     Si       1          3.999999                              0.000001
     158     Si       1          4.000003                             -0.000003
     159     Si       1          4.000003                             -0.000003
     160     Si       1          3.999998                              0.000002
     161     Si       1          4.000014                             -0.000014
     162     Si       1          3.999996                              0.000004
     163     Si       1          4.000001                             -0.000001
     164     Si       1          3.999998                              0.000002
     165     Si       1          3.999999                              0.000001
     166     Si       1          3.999996                              0.000004
     167     Si       1          3.999992                              0.000008
     168     Si       1          4.000006                             -0.000006
     169     Si       1          4.000015                             -0.000015
     170     Si       1          3.999999                              0.000001
     171     Si       1          4.000002                             -0.000002
     172     Si       1          4.000004                             -0.000004
     173     Si       1          3.999995                              0.000005
     174     Si       1          3.999998                              0.000002
     175     Si       1          4.000000                             -0.000000
     176     Si       1          3.999999                              0.000001
     177     Si       1          4.000001                             -0.000001
     178     Si       1          4.000007                             -0.000007
     179     Si       1          3.999994                              0.000006
     180     Si       1          4.000006                             -0.000006
     181     Si       1          4.000009                             -0.000009
     182     Si       1          3.999994                              0.000006
     183     Si       1          4.000001                             -0.000001
     184     Si       1          4.000001                             -0.000001
     185     Si       1          4.000003                             -0.000003
     186     Si       1          4.000007                             -0.000007
     187     Si       1          4.000003                             -0.000003
     188     Si       1          4.000003                             -0.000003
     189     Si       1          4.000003                             -0.000003
     190     Si       1          3.999999                              0.000001
     191     Si       1          3.999999                              0.000001
     192     Si       1          4.000000                             -0.000000
     193     Si       1          4.000003                             -0.000003
     194     Si       1          4.000006                             -0.000006
     195     Si       1          4.000004                             -0.000004
     196     Si       1          4.000002                             -0.000002
     197     Si       1          4.000001                             -0.000001
     198     Si       1          3.999992                              0.000008
     199     Si       1          4.000001                             -0.000001
     200     Si       1          4.000008                             -0.000008
     201     Si       1          4.000003                             -0.000003
     202     Si       1          4.000006                             -0.000006
     203     Si       1          4.000009                             -0.000009
     204     Si       1          4.000002                             -0.000002
     205     Si       1          3.999998                              0.000002
     206     Si       1          3.999995                              0.000005
     207     Si       1          3.999999                              0.000001
     208     Si       1          4.000007                             -0.000007
     209     Si       1          4.000006                             -0.000006
     210     Si       1          3.999986                              0.000014
     211     Si       1          4.000004                             -0.000004
     212     Si       1          3.999994                              0.000006
     213     Si       1          4.000004                             -0.000004
     214     Si       1          3.999999                              0.000001
     215     Si       1          4.000001                             -0.000001
     216     Si       1          4.000007                             -0.000007
     217     Si       1          4.000008                             -0.000008
     218     Si       1          3.999990                              0.000010
     219     Si       1          4.000003                             -0.000003
     220     Si       1          3.999999                              0.000001
     221     Si       1          3.999999                              0.000001
     222     Si       1          3.999999                              0.000001
     223     Si       1          4.000007                             -0.000007
     224     Si       1          3.999997                              0.000003
     225     Si       1          4.000005                             -0.000005
     226     Si       1          3.999987                              0.000013
     227     Si       1          3.999992                              0.000008
     228     Si       1          4.000000                              0.000000
     229     Si       1          3.999999                              0.000001
     230     Si       1          4.000002                             -0.000002
     231     Si       1          3.999996                              0.000004
     232     Si       1          3.999992                              0.000008
     233     Si       1          4.000007                             -0.000007
     234     Si       1          3.999988                              0.000012
     235     Si       1          4.000000                              0.000000
     236     Si       1          3.999998                              0.000002
     237     Si       1          3.999996                              0.000004
     238     Si       1          4.000007                             -0.000007
     239     Si       1          3.999994                              0.000006
     240     Si       1          3.999993                              0.000007
     241     Si       1          4.000001                             -0.000001
     242     Si       1          3.999992                              0.000008
     243     Si       1          3.999997                              0.000003
     244     Si       1          3.999990                              0.000010
     245     Si       1          4.000006                             -0.000006
     246     Si       1          4.000003                             -0.000003
     247     Si       1          3.999994                              0.000006
     248     Si       1          4.000000                             -0.000000
     249     Si       1          4.000004                             -0.000004
     250     Si       1          3.999994                              0.000006
     251     Si       1          3.999993                              0.000007
     252     Si       1          3.999996                              0.000004
     253     Si       1          4.000001                             -0.000001
     254     Si       1          4.000004                             -0.000004
     255     Si       1          4.000000                              0.000000
     256     Si       1          3.999995                              0.000005
 # Total charge                           1024.000000                 -0.000000

 !-----------------------------------------------------------------------------!

 !-----------------------------------------------------------------------------!
                           Hirshfeld Charges

  #Atom  Element  Kind  Ref Charge     Population                    Net charge
      1       Si     1       4.000          4.000                        -0.000
      2       Si     1       4.000          4.000                         0.000
      3       Si     1       4.000          4.000                        -0.000
      4       Si     1       4.000          4.000                         0.000
      5       Si     1       4.000          4.000                         0.000
      6       Si     1       4.000          4.000                        -0.000
      7       Si     1       4.000          4.000                         0.000
      8       Si     1       4.000          4.000                        -0.000
      9       Si     1       4.000          4.000                        -0.000
     10       Si     1       4.000          4.000                         0.000
     11       Si     1       4.000          4.000                        -0.000
     12       Si     1       4.000          4.000                         0.000
     13       Si     1       4.000          4.000                         0.000
     14       Si     1       4.000          4.000                        -0.000
     15       Si     1       4.000          4.000                         0.000
     16       Si     1       4.000          4.000                        -0.000
     17       Si     1       4.000          4.000                         0.000
     18       Si     1       4.000          4.000                        -0.000
     19       Si     1       4.000          4.000                         0.000
     20       Si     1       4.000          4.000                        -0.000
     21       Si     1       4.000          4.000                        -0.000
     22       Si     1       4.000          4.000                         0.000
     23       Si     1       4.000          4.000                        -0.000
     24       Si     1       4.000          4.000                         0.000
     25       Si     1       4.000          4.000                        -0.000
     26       Si     1       4.000          4.000                        -0.000
     27       Si     1       4.000          4.000                         0.000
     28       Si     1       4.000          4.000                        -0.000
     29       Si     1       4.000          4.000                        -0.000
     30       Si     1       4.000          4.000                         0.000
     31       Si     1       4.000          4.000                         0.000
     32       Si     1       4.000          4.000                         0.000
     33       Si     1       4.000          4.000                        -0.000
     34       Si     1       4.000          4.000                         0.000
     35       Si     1       4.000          4.000                        -0.000
     36       Si     1       4.000          4.000                         0.000
     37       Si     1       4.000          4.000                        -0.000
     38       Si     1       4.000          4.000                        -0.000
     39       Si     1       4.000          4.000                         0.000
     40       Si     1       4.000          4.000                        -0.000
     41       Si     1       4.000          4.000                        -0.000
     42       Si     1       4.000          4.000                        -0.000
     43       Si     1       4.000          4.000                         0.000
     44       Si     1       4.000          4.000                        -0.000
     45       Si     1       4.000          4.000                         0.000
     46       Si     1       4.000          4.000                        -0.000
     47       Si     1       4.000          4.000                         0.000
     48       Si     1       4.000          4.000                         0.000
     49       Si     1       4.000          4.000                        -0.000
     50       Si     1       4.000          4.000                         0.000
     51       Si     1       4.000          4.000                         0.000
     52       Si     1       4.000          4.000                         0.000
     53       Si     1       4.000          4.000                        -0.000
     54       Si     1       4.000          4.000                        -0.000
     55       Si     1       4.000          4.000                         0.000
     56       Si     1       4.000          4.000                         0.000
     57       Si     1       4.000          4.000                        -0.000
     58       Si     1       4.000          4.000                         0.000
     59       Si     1       4.000          4.000                        -0.000
     60       Si     1       4.000          4.000                         0.000
     61       Si     1       4.000          4.000                         0.000
     62       Si     1       4.000          4.000                        -0.000
     63       Si     1       4.000          4.000                         0.000
     64       Si     1       4.000          4.000                         0.000
     65       Si     1       4.000          4.000                        -0.000
     66       Si     1       4.000          4.000                         0.000
     67       Si     1       4.000          4.000                         0.000
     68       Si     1       4.000          4.000                         0.000
     69       Si     1       4.000          4.000                         0.000
     70       Si     1       4.000          4.000                        -0.000
     71       Si     1       4.000          4.000                        -0.000
     72       Si     1       4.000          4.000                        -0.000
     73       Si     1       4.000          4.000                        -0.000
     74       Si     1       4.000          4.000                         0.000
     75       Si     1       4.000          4.000                         0.000
     76       Si     1       4.000          4.000                         0.000
     77       Si     1       4.000          4.000                         0.000
     78       Si     1       4.000          4.000                        -0.000
     79       Si     1       4.000          4.000                        -0.000
     80       Si     1       4.000          4.000                        -0.000
     81       Si     1       4.000          4.000                        -0.000
     82       Si     1       4.000          4.000                         0.000
     83       Si     1       4.000          4.000                         0.000
     84       Si     1       4.000          4.000                         0.000
     85       Si     1       4.000          4.000                        -0.000
     86       Si     1       4.000          4.000                         0.000
     87       Si     1       4.000          4.000                        -0.000
     88       Si     1       4.000          4.000                         0.000
     89       Si     1       4.000          4.000                        -0.000
     90       Si     1       4.000          4.000                        -0.000
     91       Si     1       4.000          4.000                         0.000
     92       Si     1       4.000          4.000                        -0.000
     93       Si     1       4.000          4.000                         0.000
     94       Si     1       4.000          4.000                        -0.000
     95       Si     1       4.000          4.000                        -0.000
     96       Si     1       4.000          4.000                         0.000
     97       Si     1       4.000          4.000                         0.000
     98       Si     1       4.000          4.000                         0.000
     99       Si     1       4.000          4.000                        -0.000
    100       Si     1       4.000          4.000                        -0.000
    101       Si     1       4.000          4.000                        -0.000
    102       Si     1       4.000          4.000                        -0.000
    103       Si     1       4.000          4.000                         0.000
    104       Si     1       4.000          4.000                        -0.000
    105       Si     1       4.000          4.000                        -0.000
    106       Si     1       4.000          4.000                         0.000
    107       Si     1       4.000          4.000                        -0.000
    108       Si     1       4.000          4.000                        -0.000
    109       Si     1       4.000          4.000                        -0.000
    110       Si     1       4.000          4.000                        -0.000
    111       Si     1       4.000          4.000                         0.000
    112       Si     1       4.000          4.000                        -0.000
    113       Si     1       4.000          4.000                         0.000
    114       Si     1       4.000          4.000                         0.000
    115       Si     1       4.000          4.000                         0.000
    116       Si     1       4.000          4.000                        -0.000
    117       Si     1       4.000          4.000                        -0.000
    118       Si     1       4.000          4.000                         0.000
    119       Si     1       4.000          4.000                         0.000
    120       Si     1       4.000          4.000                        -0.000
    121       Si     1       4.000          4.000                         0.000
    122       Si     1       4.000          4.000                         0.000
    123       Si     1       4.000          4.000                         0.000
    124       Si     1       4.000          4.000                        -0.000
    125       Si     1       4.000          4.000                        -0.000
    126       Si     1       4.000          4.000                         0.000
    127       Si     1       4.000          4.000                        -0.000
    128       Si     1       4.000          4.000                         0.000
    129       Si     1       4.000          4.000                         0.000
    130       Si     1       4.000          4.000                         0.000
    131       Si     1       4.000          4.000                         0.000
    132       Si     1       4.000          4.000                        -0.000
    133       Si     1       4.000          4.000                        -0.000
    134       Si     1       4.000          4.000                        -0.000
    135       Si     1       4.000          4.000                         0.000
    136       Si     1       4.000          4.000                         0.000
    137       Si     1       4.000          4.000                         0.000
    138       Si     1       4.000          4.000                         0.000
    139       Si     1       4.000          4.000                         0.000
    140       Si     1       4.000          4.000                        -0.000
    141       Si     1       4.000          4.000                        -0.000
    142       Si     1       4.000          4.000                        -0.000
    143       Si     1       4.000          4.000                        -0.000
    144       Si     1       4.000          4.000                         0.000
    145       Si     1       4.000          4.000                        -0.000
    146       Si     1       4.000          4.000                         0.000
    147       Si     1       4.000          4.000                         0.000
    148       Si     1       4.000          4.000                         0.000
    149       Si     1       4.000          4.000                        -0.000
    150       Si     1       4.000          4.000                        -0.000
    151       Si     1       4.000          4.000                        -0.000
    152       Si     1       4.000          4.000                        -0.000
    153       Si     1       4.000          4.000                        -0.000
    154       Si     1       4.000          4.000                         0.000
    155       Si     1       4.000          4.000                        -0.000
    156       Si     1       4.000          4.000                         0.000
    157       Si     1       4.000          4.000                         0.000
    158       Si     1       4.000          4.000                        -0.000
    159       Si     1       4.000          4.000                        -0.000
    160       Si     1       4.000          4.000                         0.000
    161       Si     1       4.000          4.000                        -0.000
    162       Si     1       4.000          4.000                         0.000
    163       Si     1       4.000          4.000                        -0.000
    164       Si     1       4.000          4.000                         0.000
    165       Si     1       4.000          4.000                         0.000
    166       Si     1       4.000          4.000                         0.000
    167       Si     1       4.000          4.000                         0.000
    168       Si     1       4.000          4.000                        -0.000
    169       Si     1       4.000          4.000                        -0.000
    170       Si     1       4.000          4.000                         0.000
    171       Si     1       4.000          4.000                        -0.000
    172       Si     1       4.000          4.000                        -0.000
    173       Si     1       4.000          4.000                         0.000
    174       Si     1       4.000          4.000                        -0.000
    175       Si     1       4.000          4.000                        -0.000
    176       Si     1       4.000          4.000                         0.000
    177       Si     1       4.000          4.000                        -0.000
    178       Si     1       4.000          4.000                        -0.000
    179       Si     1       4.000          4.000                         0.000
    180       Si     1       4.000          4.000                        -0.000
    181       Si     1       4.000          4.000                        -0.000
    182       Si     1       4.000          4.000                         0.000
    183       Si     1       4.000          4.000                        -0.000
    184       Si     1       4.000          4.000                         0.000
    185       Si     1       4.000          4.000                        -0.000
    186       Si     1       4.000          4.000                        -0.000
    187       Si     1       4.000          4.000                        -0.000
    188       Si     1       4.000          4.000                        -0.000
    189       Si     1       4.000          4.000                        -0.000
    190       Si     1       4.000          4.000                         0.000
    191       Si     1       4.000          4.000                        -0.000
    192       Si     1       4.000          4.000                         0.000
    193       Si     1       4.000          4.000                        -0.000
    194       Si     1       4.000          4.000                        -0.000
    195       Si     1       4.000          4.000                        -0.000
    196       Si     1       4.000          4.000                        -0.000
    197       Si     1       4.000          4.000                        -0.000
    198       Si     1       4.000          4.000                         0.000
    199       Si     1       4.000          4.000                         0.000
    200       Si     1       4.000          4.000                        -0.000
    201       Si     1       4.000          4.000                        -0.000
    202       Si     1       4.000          4.000                        -0.000
    203       Si     1       4.000          4.000                        -0.000
    204       Si     1       4.000          4.000                        -0.000
    205       Si     1       4.000          4.000                         0.000
    206       Si     1       4.000          4.000                         0.000
    207       Si     1       4.000          4.000                         0.000
    208       Si     1       4.000          4.000                        -0.000
    209       Si     1       4.000          4.000                        -0.000
    210       Si     1       4.000          4.000                         0.000
    211       Si     1       4.000          4.000                        -0.000
    212       Si     1       4.000          4.000                         0.000
    213       Si     1       4.000          4.000                        -0.000
    214       Si     1       4.000          4.000                         0.000
    215       Si     1       4.000          4.000                        -0.000
    216       Si     1       4.000          4.000                        -0.000
    217       Si     1       4.000          4.000                        -0.000
    218       Si     1       4.000          4.000                         0.000
    219       Si     1       4.000          4.000                        -0.000
    220       Si     1       4.000          4.000                         0.000
    221       Si     1       4.000          4.000                         0.000
    222       Si     1       4.000          4.000                         0.000
    223       Si     1       4.000          4.000                        -0.000
    224       Si     1       4.000          4.000                         0.000
    225       Si     1       4.000          4.000                        -0.000
    226       Si     1       4.000          4.000                         0.000
    227       Si     1       4.000          4.000                         0.000
    228       Si     1       4.000          4.000                         0.000
    229       Si     1       4.000          4.000                         0.000
    230       Si     1       4.000          4.000                        -0.000
    231       Si     1       4.000          4.000                         0.000
    232       Si     1       4.000          4.000                         0.000
    233       Si     1       4.000          4.000                        -0.000
    234       Si     1       4.000          4.000                         0.000
    235       Si     1       4.000          4.000                         0.000
    236       Si     1       4.000          4.000                         0.000
    237       Si     1       4.000          4.000                         0.000
    238       Si     1       4.000          4.000                        -0.000
    239       Si     1       4.000          4.000                         0.000
    240       Si     1       4.000          4.000                         0.000
    241       Si     1       4.000          4.000                        -0.000
    242       Si     1       4.000          4.000                         0.000
    243       Si     1       4.000          4.000                         0.000
    244       Si     1       4.000          4.000                         0.000
    245       Si     1       4.000          4.000                        -0.000
    246       Si     1       4.000          4.000                        -0.000
    247       Si     1       4.000          4.000                         0.000
    248       Si     1       4.000          4.000                         0.000
    249       Si     1       4.000          4.000                        -0.000
    250       Si     1       4.000          4.000                         0.000
    251       Si     1       4.000          4.000                         0.000
    252       Si     1       4.000          4.000                         0.000
    253       Si     1       4.000          4.000                        -0.000
    254       Si     1       4.000          4.000                        -0.000
    255       Si     1       4.000          4.000                         0.000
    256       Si     1       4.000          4.000                         0.000

  Total Charge                                                           -0.000
 !-----------------------------------------------------------------------------!

 ENERGY| Total FORCE_EVAL ( QS ) energy [a.u.]:            -1007.671496619527716

 -------------------------------------------------------------------------------
 -                                                                             -
 -                                DBCSR STATISTICS                             -
 -                                                                             -
 -------------------------------------------------------------------------------
 COUNTER                                    TOTAL       BLAS       SMM       ACC
 flops    32 x    32 x   416           1853882368       0.0%    100.0%      0.0%     
 flops    13 x    32 x    32           3707764736       0.0%    100.0%      0.0%     
 flops   128 x    64 x    64         147102629888       0.0%    100.0%      0.0%     
 flops    13 x    13 x    64         395021778944       0.0%    100.0%      0.0%     
 flops   128 x    64 x   416         471104225280       0.0%    100.0%      0.0%     
 flops   832 x    64 x    64         586263035904       0.0%    100.0%      0.0%     
 flops   832 x    64 x   416         793897861120       0.0%    100.0%      0.0%     
 flops    13 x    32 x    13        1617035264000       0.0%    100.0%      0.0%     
 flops inhomo. stacks                           0       0.0%      0.0%      0.0%
 flops total                         4.015986E+12       0.0%    100.0%      0.0%
 flops max/rank                    125.874642E+09       0.0%    100.0%      0.0%
 matmuls inhomo. stacks                         0       0.0%      0.0%      0.0%
 matmuls total                          168219776       0.0%    100.0%      0.0%
 number of processed stacks                510568       0.0%    100.0%      0.0%
 average stack size                                     0.0     329.5       0.0
 marketing flops                     4.473410E+12
 -------------------------------------------------------------------------------
 # multiplications                           1449
 max memory usage/rank             884.998144E+06
 # max total images/rank                        2
 # max 3D layers                                1
 # MPI messages exchanged                  602784
 MPI messages size (bytes):
  total size                       233.500213E+09
  min size                           0.000000E+00
  max size                           2.768896E+06
  average size                     387.369625E+03
 MPI breakdown and total messages size (bytes):
             size <=      128                1168                        0
       128 < size <=     8192                   0                        0
      8192 < size <=    32768              170160               5575016448
     32768 < size <=   131072              122752               8044675072
    131072 < size <=  4194304              308704             219880054784
   4194304 < size <= 16777216                   0                        0
  16777216 < size                               0                        0
 -------------------------------------------------------------------------------

 *** WARNING in dbcsr_mm.F:301 :: Using a non-square number of MPI ranks ***
 *** might lead to poor performance. Used ranks: 32 Suggested: 36 64     ***

 -------------------------------------------------------------------------------
 -                                                                             -
 -                      DBCSR MESSAGE PASSING PERFORMANCE                      -
 -                                                                             -
 -------------------------------------------------------------------------------
 ROUTINE             CALLS      AVE VOLUME [Bytes]
 MP_Bcast                9                     12.
 MP_Allreduce         7875                     33.
 MP_Alltoall          4752                  29182.
 MP_ISend            45078                 172301.
 MP_IRecv            45078                 172382.
 -------------------------------------------------------------------------------

 -------------------------------------------------------------------------------
 -                                                                             -
 -                                DBM STATISTICS                               -
 -                                                                             -
 -------------------------------------------------------------------------------
    M  x    N  x    K                                          COUNT     PERCENT
 -------------------------------------------------------------------------------

 -------------------------------------------------------------------------------
 -                                                                             -
 -                                GRID STATISTICS                              -
 -                                                                             -
 -------------------------------------------------------------------------------
 LP    KERNEL             BACKEND                              COUNT     PERCENT
 4     collocate ortho    CPU                               21037824      50.34%
 4     integrate ortho    CPU                               20732928      49.61%
 0     collocate general  CPU                                  16384       0.04%
 0     integrate general  CPU                                   8192       0.02%
 -------------------------------------------------------------------------------

 MEMORY| Estimated peak process memory [MiB]                                 852

 -------------------------------------------------------------------------------
 ----                             MULTIGRID INFO                            ----
 -------------------------------------------------------------------------------
 count for grid        1:              0          cutoff [a.u.]          300.00
 count for grid        2:          81664          cutoff [a.u.]          100.00
 count for grid        3:         113536          cutoff [a.u.]           33.33
 count for grid        4:         163456          cutoff [a.u.]           11.11
 total gridlevel count  :         358656

 -------------------------------------------------------------------------------
 -                                                                             -
 -                         MESSAGE PASSING PERFORMANCE                         -
 -                                                                             -
 -------------------------------------------------------------------------------

 ROUTINE             CALLS      AVE VOLUME [Bytes]
 MP_Group                4
 MP_Bcast             3962                  48242.
 MP_Allreduce        10642                    740.
 MP_Sync                54
 MP_Alltoall          1313               20734400.
 MP_SendRecv          4278                 109696.
 MP_ISendRecv         4216                 109696.
 MP_Wait              8782
 MP_ISend             3598                 914173.
 MP_IRecv             3598                 914115.
 -------------------------------------------------------------------------------


 -------------------------------------------------------------------------------
 -                                                                             -
 -                           R E F E R E N C E S                               -
 -                                                                             -
 -------------------------------------------------------------------------------
 
 CP2K version 2024.3, the CP2K developers group (2024).
 CP2K is freely available from https://www.cp2k.org/ .
 
 T. D. Kuehne, M. Iannuzzi, M. Del Ben, V. V. Rybkin, P. Seewald, F. Stein, T. 
 Laino, R. Z. Khaliullin, O. Schuett, F. Schiffmann, D. Golze, J. Wilhelm, S. 
 Chulkov, M. H. Bani-Hashemian, V. Weber, U. Borstnik, M. Taillefumier, A. S. 
 Jakobovits, A. Lazzaro, H. Pabst, T. Mueller, R. Schade, M. Guidon, S. 
 Andermatt, N. Holmberg, G. K. Schenter, A. Hehn, A. Bussy, F. Belleflamme, G. 
 Tabacchi, A. Gloess, M. Lass, I. Bethune, C. J. Mundy, C. Plessl, M. Watkins, 
 J. VandeVondele, M. Krack, J. Hutter.
 J. Chem. Phys. 152, 194103 (2020).
 CP2K: An electronic structure and molecular dynamics software package - 
 Quickstep: Efficient and accurate electronic structure calculations.
 https://doi.org/10.1063/5.0007045

 O. Schuett, P. Messmer, J. Hutter, J. VandeVondele.
 Electronic Structure Calculations on Graphics Processing Units, 173-190 (2016).
 GPU-Accelerated Sparse Matrix-Matrix Multiplication for Linear Scaling Density 
 Functional Theory.
 https://doi.org/10.1002/9781118670712.ch8

 A. Heinecke, G. Henry, M. Hutchinson, H. Pabst.
 Proceedings of Intl. Supercomputing Conference, 981-991 (2016).
 LIBXSMM: Accelerating Small Matrix Multiplications by Runtime Code Generation.
 https://doi.org/10.1109/SC.2016.83

 J. Hutter, M. Iannuzzi, F. Schiffmann, J. VandeVondele.
 WIREs Comput Mol Sci. 4, 15-25 (2014).
 CP2K: atomistic simulations of condensed matter systems.
 https://doi.org/10.1002/wcms.1159

 U. Borstnik, J. VandeVondele, V. Weber, J. Hutter.
 Parallel Comput. 40, 47-58 (2014).
 Sparse matrix multiplication: The distributed block-compressed sparse row 
 library.
 https://doi.org/10.1016/j.parco.2014.03.012

 A. Marek, V. Blum, R. Johanni, V. Havu, B. Lang, T. Auckenthaler, A. Heinecke, 
 H. Bungartz, H. Lederer.
 J. Phys. Condens. Matter 26, 213201 (2014).
 The ELPA library: scalable parallel eigenvalue solutions for electronic 
 structure theory and computational science.
 https://doi.org/10.1088/0953-8984/26/21/213201

 J. VandeVondele, J. Hutter.
 J. Chem. Phys. 127, 114105 (2007).
 Gaussian basis sets for accurate calculations on molecular systems in gas and 
 condensed phases.
 https://doi.org/10.1063/1.2770708

 J. VandeVondele, M. Krack, F. Mohamed, M. Parrinello, T. Chassaing, J. Hutter.
 Comput. Phys. Commun. 167, 103-128 (2005).
 QUICKSTEP: Fast and accurate density functional calculations using a mixed 
 Gaussian and plane waves approach.
 https://doi.org/10.1016/j.cpc.2004.12.014

 M. Krack.
 Theor. Chem. Acc. 114, 145-152 (2005).
 Pseudopotentials for H to Kr optimized for gradient-corrected 
 exchange-correlation functionals.
 https://doi.org/10.1007/s00214-005-0655-y

 M. Frigo, S. G. Johnson.
 Proc. IEEE 93, 216-231 (2005).
 The design and implementation of FFTW3.
 https://doi.org/10.1109/JPROC.2004.840301

 J. VandeVondele, J. Hutter.
 J. Chem. Phys. 118, 4365-4369 (2003).
 An efficient orbital transformation method for electronic structure 
 calculations.
 https://doi.org/10.1063/1.1543154

 C. Hartwigsen, S. Goedecker, J. Hutter.
 Phys. Rev. B 58, 3641-3662 (1998).
 Relativistic separable dual-space Gaussian pseudopotentials from H to Rn.
 https://doi.org/10.1103/PhysRevB.58.3641

 G. Lippert, J. Hutter, M. Parrinello.
 Mol. Phys. 92, 477-487 (1997).
 A hybrid Gaussian and plane wave density functional scheme.
 https://doi.org/10.1080/002689797170220

 S. Goedecker, M. Teter, J. Hutter.
 Phys. Rev. B 54, 1703-1710 (1996).
 Separable dual-space Gaussian pseudopotentials.
 https://doi.org/10.1103/PhysRevB.54.1703

 J. P. Perdew, K. Burke, M. Ernzerhof.
 Phys. Rev. Lett. 77, 3865-3868 (1996).
 Generalized gradient approximation made simple.
 https://doi.org/10.1103/PhysRevLett.77.3865


 -------------------------------------------------------------------------------
 -                                                                             -
 -                                T I M I N G                                  -
 -                                                                             -
 -------------------------------------------------------------------------------
 SUBROUTINE                       CALLS  ASD         SELF TIME        TOTAL TIME
                                MAXIMUM       AVERAGE  MAXIMUM  AVERAGE  MAXIMUM
 CP2K                                 1  1.0    0.012    0.036   82.585   82.587
 qs_energies                          1  2.0    0.000    0.000   82.328   82.333
 scf_env_do_scf                       1  3.0    0.000    0.001   81.128   81.128
 scf_env_do_scf_inner_loop           68  4.0    0.001    0.013   79.035   79.062
 qs_ks_update_qs_env                 70  5.0    0.000    0.000   53.291   53.303
 rebuild_ks_matrix                   68  6.0    0.000    0.000   53.249   53.261
 qs_ks_build_kohn_sham_matrix        68  7.0    0.006    0.006   53.248   53.261
 qs_vxc_create                       68  8.0    0.001    0.001   25.446   25.508
 xc_vxc_pw_create                    68  9.0    0.546    0.571   25.445   25.507
 fft_wrap_pw1pw2                   1162 10.3    0.007    0.008   24.727   24.798
 fft_wrap_pw1pw2_300                751 11.7    1.220    1.260   23.938   24.007
 qs_rho_update_rho_low               69  5.0    0.000    0.000   22.667   22.676
 calculate_rho_elec                  69  6.0    0.075    0.080   22.666   22.676
 sum_up_and_integrate                68  8.0    0.001    0.001   22.098   22.101
 integrate_v_rspace                  68  9.0    0.001    0.002   21.991   22.003
 fft3d_ps                          1162 12.3   10.491   12.421   18.392   18.483
 grid_integrate_task_list            68 10.0   16.164   16.491   16.164   16.491
 xc_pw_derive                       408 11.0    0.004    0.004   15.712   15.869
 grid_collocate_task_list            69  7.0   14.792   15.311   14.792   15.311
 xc_rho_set_and_dset_create          68 10.0    0.244    0.249   14.545   14.961
 xc_pw_divergence                    68 10.0    0.002    0.002    9.969   10.064
 density_rs2pw                       69  7.0    0.002    0.002    7.375    7.593
 xc_functional_eval                  68 11.0    0.000    0.000    5.704    6.163
 pbe_lda_eval                        68 12.0    5.703    6.163    5.703    6.163
 dbcsr_multiply_generic            1449 10.1    0.035    0.037    5.464    5.478
 potential_pw2rs                     68 10.0    0.008    0.008    5.304    5.315
 x_to_yz                            613 13.7    2.333    2.608    4.796    5.140
 qs_scf_new_mos                      68  5.0    0.000    0.000    4.979    4.987
 qs_scf_loop_do_ot                   68  6.0    0.000    0.000    4.978    4.987
 mp_alltoall_z22v                  1162 14.3    4.247    4.813    4.247    4.813
 ot_scf_mini                         68  7.0    0.001    0.001    4.572    4.584
 multiply_cannon                   1449 11.1    0.059    0.062    3.827    3.905
 multiply_cannon_loop              1449 12.1    0.041    0.042    3.496    3.610
 pw_derive                          612 11.3    3.403    3.496    3.403    3.496
 yz_to_x                            549 12.9    1.310    1.352    3.094    3.300
 transfer_pw2rs                     273 11.0    0.001    0.001    2.904    2.908
 transfer_rs2pw                     278  8.0    0.002    0.002    2.321    2.565
 ot_mini                             68  8.0    0.000    0.000    2.379    2.392
 mp_waitany                        3598 11.5    1.881    2.162    1.881    2.162
 pw_poisson_solve                    68  8.0    0.001    0.001    2.128    2.152
 mp_waitall_1                     97920 14.2    1.744    2.075    1.744    2.075
 init_scf_loop                        2  4.0    0.000    0.000    2.064    2.064
 transfer_pw2rs_300                  69 11.9    0.726    0.742    2.028    2.052
 pw_scatter_p                       613 12.7    2.007    2.036    2.007    2.036
 transfer_rs2pw_300                  71  9.0    0.601    0.628    1.728    1.974
 pw_gather_p                        549 11.9    1.910    1.941    1.910    1.941
 multiply_cannon_multrec          11592 13.1    1.797    1.826    1.802    1.831
 -------------------------------------------------------------------------------

 The number of warnings for this run is : 1
 
 -------------------------------------------------------------------------------
  **** **** ******  **  PROGRAM ENDED AT                 2026-09-30 22:38:59.153
 ***** ** ***  *** **   PROGRAM RAN ON                                      cu06
 **    ****   ******    PROGRAM RAN BY                                     rudin
 ***** **    ** ** **   PROGRAM PROCESS ID                                491792
  **** **  *******  **  PROGRAM STOPPED IN /home/rudin/tmp-review-cp2k/4c-admm-p
                                           be/Si256
WALLCLOCK 4c-admm-pbe/Si256/pbe.inp 83.55 s  MAXRSS(rank0) 8020 kB
