Si128-HSE06-gamma-vasp
1.0
     21.724000000000     0.000000000000     0.000000000000
      0.000000000000    10.862000000000     0.000000000000
      0.000000000000     0.000000000000    10.862000000000
  Si
  128
Cartesian
      0.000000000000     0.000000000000     0.000000000000
      0.000000000000     2.715500000000     2.715500000000
      2.715500000000     0.000000000000     2.715500000000
      2.715500000000     2.715500000000     0.000000000000
      1.357750000000     1.357750000000     1.357750000000
      1.357750000000     4.073250000000     4.073250000000
      4.073250000000     1.357750000000     4.073250000000
      4.073250000000     4.073250000000     1.357750000000
      0.000000000000     0.000000000000     5.431000000000
      0.000000000000     2.715500000000     8.146500000000
      2.715500000000     0.000000000000     8.146500000000
      2.715500000000     2.715500000000     5.431000000000
      1.357750000000     1.357750000000     6.788750000000
      1.357750000000     4.073250000000     9.504250000000
      4.073250000000     1.357750000000     9.504250000000
      4.073250000000     4.073250000000     6.788750000000
      0.000000000000     5.431000000000     0.000000000000
      0.000000000000     8.146500000000     2.715500000000
      2.715500000000     5.431000000000     2.715500000000
      2.715500000000     8.146500000000     0.000000000000
      1.357750000000     6.788750000000     1.357750000000
      1.357750000000     9.504250000000     4.073250000000
      4.073250000000     6.788750000000     4.073250000000
      4.073250000000     9.504250000000     1.357750000000
      0.000000000000     5.431000000000     5.431000000000
      0.000000000000     8.146500000000     8.146500000000
      2.715500000000     5.431000000000     8.146500000000
      2.715500000000     8.146500000000     5.431000000000
      1.357750000000     6.788750000000     6.788750000000
      1.357750000000     9.504250000000     9.504250000000
      4.073250000000     6.788750000000     9.504250000000
      4.073250000000     9.504250000000     6.788750000000
      5.431000000000     0.000000000000     0.000000000000
      5.431000000000     2.715500000000     2.715500000000
      8.146500000000     0.000000000000     2.715500000000
      8.146500000000     2.715500000000     0.000000000000
      6.788750000000     1.357750000000     1.357750000000
      6.788750000000     4.073250000000     4.073250000000
      9.504250000000     1.357750000000     4.073250000000
      9.504250000000     4.073250000000     1.357750000000
      5.431000000000     0.000000000000     5.431000000000
      5.431000000000     2.715500000000     8.146500000000
      8.146500000000     0.000000000000     8.146500000000
      8.146500000000     2.715500000000     5.431000000000
      6.788750000000     1.357750000000     6.788750000000
      6.788750000000     4.073250000000     9.504250000000
      9.504250000000     1.357750000000     9.504250000000
      9.504250000000     4.073250000000     6.788750000000
      5.431000000000     5.431000000000     0.000000000000
      5.431000000000     8.146500000000     2.715500000000
      8.146500000000     5.431000000000     2.715500000000
      8.146500000000     8.146500000000     0.000000000000
      6.788750000000     6.788750000000     1.357750000000
      6.788750000000     9.504250000000     4.073250000000
      9.504250000000     6.788750000000     4.073250000000
      9.504250000000     9.504250000000     1.357750000000
      5.431000000000     5.431000000000     5.431000000000
      5.431000000000     8.146500000000     8.146500000000
      8.146500000000     5.431000000000     8.146500000000
      8.146500000000     8.146500000000     5.431000000000
      6.788750000000     6.788750000000     6.788750000000
      6.788750000000     9.504250000000     9.504250000000
      9.504250000000     6.788750000000     9.504250000000
      9.504250000000     9.504250000000     6.788750000000
     10.862000000000     0.000000000000     0.000000000000
     10.862000000000     2.715500000000     2.715500000000
     13.577500000000     0.000000000000     2.715500000000
     13.577500000000     2.715500000000     0.000000000000
     12.219750000000     1.357750000000     1.357750000000
     12.219750000000     4.073250000000     4.073250000000
     14.935250000000     1.357750000000     4.073250000000
     14.935250000000     4.073250000000     1.357750000000
     10.862000000000     0.000000000000     5.431000000000
     10.862000000000     2.715500000000     8.146500000000
     13.577500000000     0.000000000000     8.146500000000
     13.577500000000     2.715500000000     5.431000000000
     12.219750000000     1.357750000000     6.788750000000
     12.219750000000     4.073250000000     9.504250000000
     14.935250000000     1.357750000000     9.504250000000
     14.935250000000     4.073250000000     6.788750000000
     10.862000000000     5.431000000000     0.000000000000
     10.862000000000     8.146500000000     2.715500000000
     13.577500000000     5.431000000000     2.715500000000
     13.577500000000     8.146500000000     0.000000000000
     12.219750000000     6.788750000000     1.357750000000
     12.219750000000     9.504250000000     4.073250000000
     14.935250000000     6.788750000000     4.073250000000
     14.935250000000     9.504250000000     1.357750000000
     10.862000000000     5.431000000000     5.431000000000
     10.862000000000     8.146500000000     8.146500000000
     13.577500000000     5.431000000000     8.146500000000
     13.577500000000     8.146500000000     5.431000000000
     12.219750000000     6.788750000000     6.788750000000
     12.219750000000     9.504250000000     9.504250000000
     14.935250000000     6.788750000000     9.504250000000
     14.935250000000     9.504250000000     6.788750000000
     16.293000000000     0.000000000000     0.000000000000
     16.293000000000     2.715500000000     2.715500000000
     19.008500000000     0.000000000000     2.715500000000
     19.008500000000     2.715500000000     0.000000000000
     17.650750000000     1.357750000000     1.357750000000
     17.650750000000     4.073250000000     4.073250000000
     20.366250000000     1.357750000000     4.073250000000
     20.366250000000     4.073250000000     1.357750000000
     16.293000000000     0.000000000000     5.431000000000
     16.293000000000     2.715500000000     8.146500000000
     19.008500000000     0.000000000000     8.146500000000
     19.008500000000     2.715500000000     5.431000000000
     17.650750000000     1.357750000000     6.788750000000
     17.650750000000     4.073250000000     9.504250000000
     20.366250000000     1.357750000000     9.504250000000
     20.366250000000     4.073250000000     6.788750000000
     16.293000000000     5.431000000000     0.000000000000
     16.293000000000     8.146500000000     2.715500000000
     19.008500000000     5.431000000000     2.715500000000
     19.008500000000     8.146500000000     0.000000000000
     17.650750000000     6.788750000000     1.357750000000
     17.650750000000     9.504250000000     4.073250000000
     20.366250000000     6.788750000000     4.073250000000
     20.366250000000     9.504250000000     1.357750000000
     16.293000000000     5.431000000000     5.431000000000
     16.293000000000     8.146500000000     8.146500000000
     19.008500000000     5.431000000000     8.146500000000
     19.008500000000     8.146500000000     5.431000000000
     17.650750000000     6.788750000000     6.788750000000
     17.650750000000     9.504250000000     9.504250000000
     20.366250000000     6.788750000000     9.504250000000
     20.366250000000     9.504250000000     6.788750000000
