 running on   32 total cores
 distrk:  each k-point on   32 cores,    1 groups
 distr:  one band on    4 cores,    8 groups
 using from now: INCAR     
 vasp.5.4.4.18Apr17-6-g9f103f2a35 (build Mar 10 2026 18:18:58) gamma-only       
  
 POSCAR found type information on POSCAR  Si
 POSCAR found :  1 types and     128 ions
 scaLAPACK will be used

 ----------------------------------------------------------------------------- 
|                                                                             |
|  ADVICE TO THIS USER RUNNING 'VASP/VAMP'   (HEAR YOUR MASTER'S VOICE ...):  |
|                                                                             |
|      You have a (more or less) 'large supercell' and for larger cells       |
|      it might be more efficient to use real space projection opertators     |
|      So try LREAL= Auto  in the INCAR   file.                               |
|      Mind:          For very  accurate calculation you might also keep the  |
|      reciprocal projection scheme          (i.e. LREAL=.FALSE.)             |
|                                                                             |
 ----------------------------------------------------------------------------- 

 LDA part: xc-table for Pade appr. of Perdew
 found WAVECAR, reading the header
 POSCAR, INCAR and KPOINTS ok, starting setup
 FFT: planning ...
 reading WAVECAR
 the WAVECAR file was read successfully
 initial charge from wavefunction
 entering main loop
       N       E                     dE             d eps       ncg     rms          ort
 gam= 0.000 g(H,U,f)=  0.405E+01 0.124E+00 0.416E-13 ort(H,U,f) = 0.000E+00 0.000E+00 0.000E+00
SDA:   1    -0.798459018196E+03   -0.79846E+03   -0.16686E+01   328   0.417E+01 0.000E+00
 gam= 0.382 g(H,U,f)=  0.162E+01 0.879E-01 0.364E-13 ort(H,U,f) = 0.256E+01 0.998E-01 0.437E-13
DMP:   2    -0.799824666208E+03   -0.13656E+01   -0.10907E+01   328   0.171E+01 0.266E+01
 gam= 0.382 g(H,U,f)=  0.475E+00 0.531E-01 0.261E-14 ort(H,U,f) = 0.130E+01 0.929E-01 0.504E-14
DMP:   3    -0.800648847250E+03   -0.82418E+00   -0.42418E+00   328   0.528E+00 0.139E+01
 gam= 0.382 g(H,U,f)=  0.151E+00 0.285E-01 0.502E-15 ort(H,U,f) = 0.453E+00 0.620E-01 0.125E-14
DMP:   4    -0.800964025120E+03   -0.31518E+00   -0.15061E+00   328   0.180E+00 0.515E+00
 gam= 0.382 g(H,U,f)=  0.566E-01 0.139E-01 0.108E-14 ort(H,U,f) = 0.155E+00 0.352E-01 0.318E-14
DMP:   5    -0.801077693427E+03   -0.11367E+00   -0.57290E-01   328   0.705E-01 0.190E+00
 gam= 0.382 g(H,U,f)=  0.257E-01 0.633E-02 0.128E-14 ort(H,U,f) = 0.617E-01 0.180E-01 0.392E-14
DMP:   6    -0.801122499968E+03   -0.44807E-01   -0.24998E-01   328   0.321E-01 0.797E-01
 gam= 0.382 g(H,U,f)=  0.132E-01 0.276E-02 0.393E-16 ort(H,U,f) = 0.304E-01 0.855E-02 0.153E-15
DMP:   7    -0.801142900424E+03   -0.20400E-01   -0.12325E-01   328   0.160E-01 0.389E-01
 gam= 0.382 g(H,U,f)=  0.712E-02 0.117E-02 0.422E-14 ort(H,U,f) = 0.168E-01 0.387E-02 0.155E-13
DMP:   8    -0.801153250369E+03   -0.10350E-01   -0.64811E-02   328   0.829E-02 0.207E-01
 gam= 0.382 g(H,U,f)=  0.400E-02 0.487E-03 0.849E-16 ort(H,U,f) = 0.987E-02 0.169E-02 0.332E-15
DMP:   9    -0.801158808134E+03   -0.55578E-02   -0.35629E-02   328   0.449E-02 0.116E-01
 gam= 0.382 g(H,U,f)=  0.235E-02 0.199E-03 0.213E-16 ort(H,U,f) = 0.599E-02 0.721E-03 0.137E-15
DMP:  10    -0.801161921630E+03   -0.31135E-02   -0.20431E-02   328   0.255E-02 0.671E-02
 gam= 0.382 g(H,U,f)=  0.145E-02 0.799E-04 0.190E-17 ort(H,U,f) = 0.374E-02 0.299E-03 0.189E-16
DMP:  11    -0.801163740012E+03   -0.18184E-02   -0.12309E-02   328   0.153E-02 0.404E-02
 gam= 0.382 g(H,U,f)=  0.965E-03 0.315E-04 0.114E-19 ort(H,U,f) = 0.243E-02 0.121E-03 0.117E-18
DMP:  12    -0.801164857475E+03   -0.11175E-02   -0.78863E-03   328   0.997E-03 0.255E-02
 gam= 0.382 g(H,U,f)=  0.674E-03 0.123E-04 0.975E-19 ort(H,U,f) = 0.165E-02 0.484E-04-0.455E-18
DMP:  13    -0.801165585967E+03   -0.72849E-03   -0.53399E-03   328   0.686E-03 0.170E-02
 gam= 0.382 g(H,U,f)=  0.490E-03 0.476E-05 0.110E-18 ort(H,U,f) = 0.117E-02 0.191E-04-0.760E-19
DMP:  14    -0.801166086454E+03   -0.50049E-03   -0.37894E-03   328   0.495E-03 0.118E-02
 gam= 0.382 g(H,U,f)=  0.368E-03 0.185E-05 0.704E-19 ort(H,U,f) = 0.851E-03 0.746E-05 0.601E-19
DMP:  15    -0.801166445909E+03   -0.35946E-03   -0.27936E-03   328   0.370E-03 0.859E-03
 gam= 0.382 g(H,U,f)=  0.284E-03 0.733E-06 0.335E-19 ort(H,U,f) = 0.640E-03 0.293E-05 0.619E-19
DMP:  16    -0.801166713409E+03   -0.26750E-03   -0.21208E-03   328   0.284E-03 0.643E-03
 gam= 0.382 g(H,U,f)=  0.225E-03 0.298E-06 0.119E-19 ort(H,U,f) = 0.493E-03 0.117E-05 0.333E-19
DMP:  17    -0.801166917845E+03   -0.20444E-03   -0.16562E-03   328   0.225E-03 0.494E-03
 gam= 0.382 g(H,U,f)=  0.203E-03 0.127E-06 0.252E-20 ort(H,U,f) = 0.389E-03 0.480E-06 0.112E-19
DMP:  18    -0.801167078246E+03   -0.16040E-03   -0.14071E-03   328   0.203E-03 0.389E-03
 gam= 0.382 g(H,U,f)=  0.188E-03 0.580E-07 0.690E-22 ort(H,U,f) = 0.332E-03 0.207E-06 0.112E-20
DMP:  19    -0.801167214791E+03   -0.13654E-03   -0.12612E-03   328   0.189E-03 0.332E-03
 gam= 0.382 g(H,U,f)=  0.177E-03 0.294E-07 0.450E-21 ort(H,U,f) = 0.297E-03 0.963E-07-0.127E-20
DMP:  20    -0.801167337212E+03   -0.12242E-03   -0.11647E-03   328   0.178E-03 0.298E-03
 gam= 0.382 g(H,U,f)=  0.169E-03 0.169E-07 0.180E-20 ort(H,U,f) = 0.274E-03 0.496E-07-0.726E-22
DMP:  21    -0.801167450179E+03   -0.11297E-03   -0.10953E-03   328   0.169E-03 0.274E-03
 gam= 0.382 g(H,U,f)=  0.158E-03 0.112E-07 0.346E-20 ort(H,U,f) = 0.257E-03 0.289E-07 0.247E-20
DMP:  22    -0.801167556244E+03   -0.10606E-03   -0.10248E-03   328   0.158E-03 0.257E-03
 gam= 0.382 g(H,U,f)=  0.148E-03 0.833E-08 0.522E-20 ort(H,U,f) = 0.240E-03 0.191E-07 0.543E-20
DMP:  23    -0.801167655303E+03   -0.99060E-04   -0.95971E-04   328   0.148E-03 0.240E-03
 gam= 0.382 g(H,U,f)=  0.140E-03 0.687E-08 0.704E-20 ort(H,U,f) = 0.223E-03 0.142E-07 0.849E-20
DMP:  24    -0.801167747864E+03   -0.92560E-04   -0.90289E-04   328   0.140E-03 0.223E-03
 gam= 0.382 g(H,U,f)=  0.132E-03 0.612E-08 0.901E-20 ort(H,U,f) = 0.209E-03 0.116E-07 0.117E-19
DMP:  25    -0.801167834696E+03   -0.86832E-04   -0.84622E-04   328   0.132E-03 0.209E-03
 gam= 0.382 g(H,U,f)=  0.122E-03 0.575E-08 0.113E-19 ort(H,U,f) = 0.194E-03 0.102E-07 0.151E-19
DMP:  26    -0.801167915794E+03   -0.81098E-04   -0.78555E-04   328   0.122E-03 0.194E-03
 gam= 0.382 g(H,U,f)=  0.111E-03 0.557E-08 0.140E-19 ort(H,U,f) = 0.179E-03 0.949E-08 0.190E-19
DMP:  27    -0.801167990770E+03   -0.74976E-04   -0.71872E-04   328   0.111E-03 0.179E-03
 gam= 0.382 g(H,U,f)=  0.986E-04 0.547E-08 0.172E-19 ort(H,U,f) = 0.162E-03 0.911E-08 0.236E-19
DMP:  28    -0.801168059050E+03   -0.68281E-04   -0.64175E-04   328   0.986E-04 0.162E-03
 gam= 0.382 g(H,U,f)=  0.862E-04 0.540E-08 0.208E-19 ort(H,U,f) = 0.143E-03 0.890E-08 0.288E-19
DMP:  29    -0.801168119709E+03   -0.60659E-04   -0.56360E-04   328   0.862E-04 0.143E-03
 gam= 0.382 g(H,U,f)=  0.731E-04 0.531E-08 0.249E-19 ort(H,U,f) = 0.124E-03 0.873E-08 0.349E-19
DMP:  30    -0.801168172691E+03   -0.52983E-04   -0.48236E-04   328   0.731E-04 0.124E-03
 gam= 0.382 g(H,U,f)=  0.604E-04 0.517E-08 0.292E-19 ort(H,U,f) = 0.105E-03 0.853E-08 0.415E-19
DMP:  31    -0.801168217740E+03   -0.45049E-04   -0.40193E-04   328   0.604E-04 0.105E-03
 gam= 0.382 g(H,U,f)=  0.486E-04 0.493E-08 0.341E-19 ort(H,U,f) = 0.861E-04 0.823E-08 0.487E-19
DMP:  32    -0.801168255051E+03   -0.37311E-04   -0.32615E-04   328   0.486E-04 0.861E-04
 gam= 0.382 g(H,U,f)=  0.381E-04 0.464E-08 0.382E-19 ort(H,U,f) = 0.685E-04 0.783E-08 0.558E-19
DMP:  33    -0.801168285009E+03   -0.29958E-04   -0.25705E-04   328   0.381E-04 0.686E-04
 gam= 0.382 g(H,U,f)=  0.301E-04 0.420E-08 0.436E-19 ort(H,U,f) = 0.522E-04 0.726E-08 0.637E-19
DMP:  34    -0.801168308336E+03   -0.23327E-04   -0.20011E-04   328   0.301E-04 0.522E-04
 gam= 0.382 g(H,U,f)=  0.277E-04 0.380E-08 0.455E-19 ort(H,U,f) = 0.363E-04 0.661E-08 0.695E-19
DMP:  35    -0.801168325511E+03   -0.17175E-04   -0.16616E-04   328   0.277E-04 0.363E-04
 gam= 0.382 g(H,U,f)=  0.410E-04 0.330E-08 0.513E-19 ort(H,U,f) = 0.168E-04 0.580E-08 0.766E-19
DMP:  36    -0.801168337279E+03   -0.11769E-04   -0.18954E-04   328   0.410E-04 0.168E-04
 gam= 0.382 g(H,U,f)=  0.121E-03 0.325E-08 0.485E-19 ort(H,U,f) =-0.274E-04 0.485E-08 0.783E-19
DMP:  37    -0.801168341141E+03   -0.38614E-05   -0.44197E-04   328   0.121E-03-0.274E-04
 gam= 0.382 g(H,U,f)=  0.501E-03 0.616E-08 0.512E-19 ort(H,U,f) =-0.186E-03 0.293E-08 0.805E-19
DMP:  38    -0.801168326067E+03    0.15074E-04   -0.17218E-03   328   0.501E-03-0.186E-03
 gam= 0.382 g(H,U,f)=  0.240E-02 0.345E-07 0.473E-19 ort(H,U,f) =-0.898E-03-0.681E-08 0.787E-19
DMP:  39    -0.801168232796E+03    0.93270E-04   -0.82228E-03   328   0.240E-02-0.898E-03
 gam= 0.382 g(H,U,f)=  0.132E-01 0.281E-06 0.279E-19 ort(H,U,f) =-0.490E-02-0.818E-07 0.592E-19
DMP:  40    -0.801167663720E+03    0.56908E-03   -0.45282E-02   328   0.132E-01-0.490E-02
 gam= 0.382 g(H,U,f)=  0.689E-01 0.216E-05 0.772E-19 ort(H,U,f) =-0.262E-01-0.684E-06 0.841E-19
DMP:  41    -0.801164694754E+03    0.29690E-02   -0.23575E-01   328   0.689E-01-0.262E-01
 gam= 0.382 g(H,U,f)=  0.326E+00 0.142E-04 0.584E-20 ort(H,U,f) =-0.133E+00-0.484E-05-0.214E-19
DMP:  42    -0.801149898180E+03    0.14797E-01   -0.10991E+00   328   0.326E+00-0.133E+00
 gam= 0.382 g(H,U,f)=  0.122E+01 0.721E-04 0.318E-18 ort(H,U,f) =-0.551E+00-0.274E-04 0.435E-19
DMP:  43    -0.801094631528E+03    0.55267E-01   -0.40238E+00   328   0.122E+01-0.551E+00
 gam= 0.382 g(H,U,f)=  0.345E+01 0.270E-03 0.115E-18 ort(H,U,f) =-0.176E+01-0.111E-03-0.105E-18
DMP:  44    -0.800943456292E+03    0.15118E+00   -0.11130E+01   328   0.345E+01-0.176E+01
 gam= 0.382 g(H,U,f)=  0.728E+01 0.799E-03 0.644E-19 ort(H,U,f) =-0.416E+01-0.296E-03 0.202E-18
DMP:  45    -0.800665130271E+03    0.27833E+00   -0.22779E+01   328   0.728E+01-0.416E+01
 gam= 0.382 g(H,U,f)=  0.116E+02 0.175E-02 0.234E-18 ort(H,U,f) =-0.735E+01-0.340E-03-0.139E-18
DMP:  46    -0.800326316938E+03    0.33881E+00   -0.35377E+01   328   0.117E+02-0.735E+01
 gam= 0.382 g(H,U,f)=  0.148E+02 0.306E-02 0.310E-18 ort(H,U,f) =-0.100E+02 0.437E-03-0.151E-18
DMP:  47    -0.800064404689E+03    0.26191E+00   -0.43974E+01   328   0.148E+02-0.100E+02
 gam= 0.382 g(H,U,f)=  0.152E+02 0.365E-02 0.508E-16 ort(H,U,f) =-0.112E+02 0.224E-02-0.358E-16
DMP:  48    -0.799988238568E+03    0.76166E-01   -0.43721E+01   328   0.152E+02-0.112E+02
 gam= 0.382 g(H,U,f)=  0.108E+02 0.357E-02 0.339E-20 ort(H,U,f) =-0.928E+01 0.396E-02 0.203E-19
DMP:  49    -0.800269611188E+03   -0.28137E+00   -0.29148E+01   328   0.108E+02-0.928E+01
 gam= 0.382 g(H,U,f)=  0.401E+01 0.282E-02 0.156E-18 ort(H,U,f) =-0.447E+01 0.439E-02-0.175E-18
DMP:  50    -0.800806724193E+03   -0.53711E+00   -0.92368E+00   328   0.401E+01-0.446E+01
 gam= 0.382 g(H,U,f)=  0.429E+00 0.186E-02 0.583E-19 ort(H,U,f) =-0.695E+00 0.361E-02 0.135E-19
DMP:  51    -0.801124419844E+03   -0.31770E+00   -0.66581E-01   328   0.431E+00-0.691E+00
 gam= 0.382 g(H,U,f)=  0.176E+00 0.107E-02 0.596E-20 ort(H,U,f) =-0.503E-01 0.244E-02-0.162E-20
DMP:  52    -0.801147860269E+03   -0.23440E-01   -0.63590E-01   328   0.177E+00-0.478E-01
 gam= 0.382 g(H,U,f)=  0.123E+00 0.551E-03 0.490E-18 ort(H,U,f) =-0.131E+00 0.143E-02-0.385E-18
DMP:  53    -0.801153656429E+03   -0.57962E-02   -0.29634E-01   328   0.124E+00-0.129E+00
 gam= 0.382 g(H,U,f)=  0.123E-01 0.263E-03 0.751E-19 ort(H,U,f) =-0.108E-01 0.758E-03 0.219E-18
DMP:  54    -0.801166438814E+03   -0.12782E-01   -0.35105E-02   328   0.126E-01-0.100E-01
 gam= 0.382 g(H,U,f)=  0.140E-01 0.119E-03 0.767E-18 ort(H,U,f) =-0.977E-02 0.370E-03 0.210E-17
DMP:  55    -0.801166311892E+03    0.12692E-03   -0.42011E-02   328   0.141E-01-0.940E-02
 gam= 0.382 g(H,U,f)=  0.197E-02 0.507E-04 0.180E-21 ort(H,U,f) =-0.215E-02 0.169E-03-0.585E-22
DMP:  56    -0.801168014561E+03   -0.17027E-02   -0.50395E-03   328   0.202E-02-0.199E-02
 gam= 0.382 g(H,U,f)=  0.171E-02 0.206E-04 0.129E-20 ort(H,U,f) =-0.104E-02 0.735E-04 0.357E-21
DMP:  57    -0.801168074164E+03   -0.59603E-04   -0.54490E-03   328   0.173E-02-0.963E-03
 gam= 0.382 g(H,U,f)=  0.272E-03 0.804E-05 0.666E-22 ort(H,U,f) =-0.236E-03 0.303E-04 0.240E-21
DMP:  58    -0.801168305245E+03   -0.23108E-03   -0.80478E-04   328   0.280E-03-0.206E-03
 gam= 0.382 g(H,U,f)=  0.206E-03 0.301E-05 0.312E-21 ort(H,U,f) =-0.143E-03 0.120E-04-0.259E-21
DMP:  59    -0.801168319495E+03   -0.14250E-04   -0.63773E-04   328   0.209E-03-0.131E-03
 gam= 0.382 g(H,U,f)=  0.432E-04 0.108E-05 0.238E-22 ort(H,U,f) =-0.167E-05 0.454E-05 0.499E-22
DMP:  60    -0.801168352012E+03   -0.32516E-04   -0.18170E-04   328   0.443E-04 0.287E-05
 gam= 0.382 g(H,U,f)=  0.235E-04 0.372E-06 0.148E-21 ort(H,U,f) =-0.226E-04 0.164E-05 0.253E-22
DMP:  61    -0.801168356872E+03   -0.48609E-05   -0.63497E-05   328   0.239E-04-0.210E-04
 gam= 0.382 g(H,U,f)=  0.930E-05 0.121E-06 0.303E-22 ort(H,U,f) =-0.116E-05 0.569E-06 0.714E-22
DMP:  62    -0.801168359902E+03   -0.30292E-05   -0.36804E-05   328   0.943E-05-0.589E-06
 gam= 0.382 g(H,U,f)=  0.275E-05 0.376E-07 0.964E-24 ort(H,U,f) =-0.312E-05 0.187E-06-0.975E-23
DMP:  63    -0.801168361132E+03   -0.12304E-05   -0.66660E-06   328   0.279E-05-0.293E-05
 gam= 0.382 g(H,U,f)=  0.151E-05 0.109E-07 0.121E-23 ort(H,U,f) =-0.512E-06 0.583E-07-0.345E-23
DMP:  64    -0.801168361380E+03   -0.24777E-06   -0.54081E-06   328   0.153E-05-0.454E-06
 final diagonalization
   1 F= -.80116836E+03 E0= -.80116836E+03  d E =-.338137E-11
