<?xml version="1.0" encoding="ISO-8859-1"?>
<modeling>
 <generator>
  <i name="program" type="string">vasp </i>
  <i name="version" type="string">5.4.4.18Apr17-6-g9f103f2a35  </i>
  <i name="subversion" type="string">(build Mar 10 2026 18:18:58) gamma-only         parallel </i>
  <i name="platform" type="string">LinuxIFC </i>
  <i name="date" type="string">2026 06 25 </i>
  <i name="time" type="string">14:53:33 </i>
 </generator>
 <incar>
  <i type="string" name="SYSTEM"> Si128-HSE06-gamma-vasp  (HSE06)</i>
  <i type="int" name="ISTART">     1</i>
  <i type="string" name="PREC">accurate</i>
  <i type="string" name="ALGO"> Damped</i>
  <i type="int" name="ICHARG">     0</i>
  <i type="int" name="NELM">   120</i>
  <i name="EDIFF">      0.00000100</i>
  <i name="ENCUT">    320.00000000</i>
  <i type="logical" name="LREAL"> F  </i>
  <i name="TIME">      0.40000000</i>
  <i type="int" name="ISMEAR">     0</i>
  <i name="SIGMA">      0.05000000</i>
  <i type="logical" name="LWAVE"> F  </i>
  <i type="logical" name="LCHARG"> F  </i>
  <v type="int" name="KPOINT_BSE">    -1     0     0     0</v>
  <i type="int" name="NELM">   120</i>
  <i type="logical" name="LHFCALC"> T  </i>
  <i name="HFSCREEN">      0.20000000</i>
  <i name="AEXX">      0.25000000</i>
  <i type="string" name="PRECFOCK">fast</i>
 </incar>
 <structure name="primitive_cell" >
  <crystal>
   <varray name="basis" >
    <v>       2.71550000       2.71550000       0.00000000 </v>
    <v>       2.71550000       0.00000000      -2.71550000 </v>
    <v>       0.00000000       2.71550000      -2.71550000 </v>
   </varray>
   <i name="volume">     40.04786950 </i>
   <varray name="rec_basis" >
    <v>       0.18412815       0.18412815       0.18412815 </v>
    <v>       0.18412815      -0.18412815      -0.18412815 </v>
    <v>      -0.18412815       0.18412815      -0.18412815 </v>
   </varray>
  </crystal>
  <varray name="positions" >
   <v>       0.00000000       0.00000000       0.00000000 </v>
   <v>      -0.25000000      -0.25000000      -0.25000000 </v>
  </varray>
 </structure>
 <varray name="primitive_index" >
  <v type="int" >        1 </v>
  <v type="int" >        5 </v>
 </varray>
 <kpoints>
  <generation param="Gamma">
   <v type="int" name="divisions">       1        1        1 </v>
   <v name="usershift">      0.00000000       0.00000000       0.00000000 </v>
   <v name="genvec1">      1.00000000       0.00000000       0.00000000 </v>
   <v name="genvec2">      0.00000000       1.00000000       0.00000000 </v>
   <v name="genvec3">      0.00000000       0.00000000       1.00000000 </v>
   <v name="shift">      0.00000000       0.00000000       0.00000000 </v>
  </generation>
  <varray name="kpointlist" >
   <v>       0.00000000       0.00000000       0.00000000 </v>
  </varray>
  <varray name="weights" >
   <v>       1.00000000 </v>
  </varray>
 </kpoints>
 <parameters>
  <separator name="general" >
   <i type="string" name="SYSTEM">Si128-HSE06-gamma-vasp  (HSE06)</i>
   <i type="logical" name="LCOMPAT"> F  </i>
  </separator>
  <separator name="electronic" >
   <i type="string" name="PREC">accura</i>
   <i name="ENMAX">    320.00000000</i>
   <i name="ENAUG">    322.06900000</i>
   <i name="EDIFF">      0.00000100</i>
   <i type="int" name="IALGO">    53</i>
   <i type="int" name="IWAVPR">    10</i>
   <i type="int" name="NBANDS">   328</i>
   <i name="NELECT">    512.00000000</i>
   <i type="int" name="TURBO">     0</i>
   <i type="int" name="IRESTART">     0</i>
   <i type="int" name="NREBOOT">     0</i>
   <i type="int" name="NMIN">     0</i>
   <i name="EREF">      0.00000000</i>
   <separator name="electronic smearing" >
    <i type="int" name="ISMEAR">     0</i>
    <i name="SIGMA">      0.05000000</i>
    <i name="KSPACING">      0.50000000</i>
    <i type="logical" name="KGAMMA"> T  </i>
   </separator>
   <separator name="electronic projectors" >
    <i type="logical" name="LREAL"> F  </i>
    <v name="ROPT">      0.00000000</v>
    <i type="int" name="LMAXPAW">  -100</i>
    <i type="int" name="LMAXMIX">     2</i>
    <i type="logical" name="NLSPLINE"> F  </i>
   </separator>
   <separator name="electronic startup" >
    <i type="int" name="ISTART">     1</i>
    <i type="int" name="ICHARG">     0</i>
    <i type="int" name="INIWAV">     1</i>
   </separator>
   <separator name="electronic spin" >
    <i type="int" name="ISPIN">     1</i>
    <i type="logical" name="LNONCOLLINEAR"> F  </i>
    <v name="MAGMOM">      1.00000000      1.00000000      1.00000000      1.00000000      1.00000000      1.00000000      1.00000000      1.00000000      1.00000000      1.00000000      1.00000000      1.00000000      1.00000000      1.00000000      1.00000000      1.00000000      1.00000000      1.00000000      1.00000000      1.00000000
      1.00000000      1.00000000      1.00000000      1.00000000      1.00000000      1.00000000      1.00000000      1.00000000      1.00000000      1.00000000      1.00000000      1.00000000      1.00000000      1.00000000      1.00000000      1.00000000      1.00000000      1.00000000      1.00000000      1.00000000
      1.00000000      1.00000000      1.00000000      1.00000000      1.00000000      1.00000000      1.00000000      1.00000000      1.00000000      1.00000000      1.00000000      1.00000000      1.00000000      1.00000000      1.00000000      1.00000000      1.00000000      1.00000000      1.00000000      1.00000000
      1.00000000      1.00000000      1.00000000      1.00000000      1.00000000      1.00000000      1.00000000      1.00000000      1.00000000      1.00000000      1.00000000      1.00000000      1.00000000      1.00000000      1.00000000      1.00000000      1.00000000      1.00000000      1.00000000      1.00000000
      1.00000000      1.00000000      1.00000000      1.00000000      1.00000000      1.00000000      1.00000000      1.00000000      1.00000000      1.00000000      1.00000000      1.00000000      1.00000000      1.00000000      1.00000000      1.00000000      1.00000000      1.00000000      1.00000000      1.00000000
      1.00000000      1.00000000      1.00000000      1.00000000      1.00000000      1.00000000      1.00000000      1.00000000      1.00000000      1.00000000      1.00000000      1.00000000      1.00000000      1.00000000      1.00000000      1.00000000      1.00000000      1.00000000      1.00000000      1.00000000
      1.00000000      1.00000000      1.00000000      1.00000000      1.00000000      1.00000000      1.00000000      1.00000000</v>
    <i name="NUPDOWN">     -1.00000000</i>
    <i type="logical" name="LSORBIT"> F  </i>
    <v name="SAXIS">      0.00000000      0.00000000      1.00000000</v>
    <i type="logical" name="LSPIRAL"> F  </i>
    <v name="QSPIRAL">      0.00000000      0.00000000      0.00000000</v>
    <i type="logical" name="LZEROZ"> F  </i>
   </separator>
   <separator name="electronic exchange-correlation" >
    <i type="logical" name="LASPH"> F  </i>
    <i type="logical" name="LMETAGGA"> F  </i>
   </separator>
   <separator name="electronic convergence" >
    <i type="int" name="NELM">   120</i>
    <i type="int" name="NELMDL">     0</i>
    <i type="int" name="NELMIN">     2</i>
    <i name="ENINI">    320.00000000</i>
    <separator name="electronic convergence detail" >
     <i type="logical" name="LDIAG"> T  </i>
     <i type="logical" name="LSUBROT"> F  </i>
     <i name="WEIMIN">      0.00000000</i>
     <i name="EBREAK">      0.00000000</i>
     <i name="DEPER">      0.30000000</i>
     <i type="int" name="NRMM">     4</i>
     <i name="TIME">      0.40000000</i>
    </separator>
   </separator>
   <separator name="electronic mixer" >
    <i name="AMIX">      0.40000000</i>
    <i name="BMIX">      1.00000000</i>
    <i name="AMIN">      0.10000000</i>
    <i name="AMIX_MAG">      1.60000000</i>
    <i name="BMIX_MAG">      1.00000000</i>
    <separator name="electronic mixer details" >
     <i type="int" name="IMIX">     4</i>
     <i type="logical" name="MIXFIRST"> F  </i>
     <i type="int" name="MAXMIX">   -45</i>
     <i name="WC">    100.00000000</i>
     <i type="int" name="INIMIX">     1</i>
     <i type="int" name="MIXPRE">     1</i>
     <i type="int" name="MREMOVE">     5</i>
    </separator>
   </separator>
   <separator name="electronic dipolcorrection" >
    <i type="logical" name="LDIPOL"> F  </i>
    <i type="logical" name="LMONO"> F  </i>
    <i type="int" name="IDIPOL">     0</i>
    <i name="EPSILON">      1.00000000</i>
    <v name="DIPOL">   -100.00000000   -100.00000000   -100.00000000</v>
    <i name="EFIELD">      0.00000000</i>
   </separator>
  </separator>
  <separator name="grids" >
   <i type="int" name="NGX">   128</i>
   <i type="int" name="NGY">    64</i>
   <i type="int" name="NGZ">    64</i>
   <i type="int" name="NGXF">   256</i>
   <i type="int" name="NGYF">   128</i>
   <i type="int" name="NGZF">   128</i>
   <i type="logical" name="ADDGRID"> F  </i>
  </separator>
  <separator name="ionic" >
   <i type="int" name="NSW">     0</i>
   <i type="int" name="IBRION">    -1</i>
   <i type="int" name="MDALGO">     0</i>
   <i type="int" name="ISIF">     0</i>
   <i name="PSTRESS">      0.00000000</i>
   <i name="EDIFFG">      0.00001000</i>
   <i type="int" name="NFREE">     0</i>
   <i name="POTIM">      0.50000000</i>
   <i name="SMASS">     -3.00000000</i>
   <i name="SCALEE">      1.00000000</i>
  </separator>
  <separator name="ionic md" >
   <i name="TEBEG">      0.00010000</i>
   <i name="TEEND">      0.00010000</i>
   <i type="int" name="NBLOCK">     1</i>
   <i type="int" name="KBLOCK">     1</i>
   <i type="int" name="NPACO">   256</i>
   <i name="APACO">     16.00000000</i>
  </separator>
  <separator name="symmetry" >
   <i type="int" name="ISYM">     3</i>
   <i name="SYMPREC">      0.00001000</i>
  </separator>
  <separator name="dos" >
   <i type="int" name="LORBIT">     0</i>
   <v name="RWIGS">     -1.00000000</v>
   <i type="int" name="NEDOS">   301</i>
   <i name="EMIN">     10.00000000</i>
   <i name="EMAX">    -10.00000000</i>
   <i name="EFERMI">      0.00000000</i>
  </separator>
  <separator name="writing" >
   <i type="int" name="NWRITE">     2</i>
   <i type="logical" name="LWAVE"> F  </i>
   <i type="logical" name="LDOWNSAMPLE"> F  </i>
   <i type="logical" name="LCHARG"> F  </i>
   <i type="logical" name="LPARD"> F  </i>
   <i type="logical" name="LVTOT"> F  </i>
   <i type="logical" name="LVHAR"> F  </i>
   <i type="logical" name="LELF"> F  </i>
   <i type="logical" name="LOPTICS"> F  </i>
   <v name="STM">      0.00000000      0.00000000      0.00000000      0.00000000      0.00000000      0.00000000      0.00000000</v>
  </separator>
  <separator name="performance" >
   <i type="int" name="NPAR">     8</i>
   <i type="int" name="NSIM">     4</i>
   <i type="int" name="NBLK">    -1</i>
   <i type="logical" name="LPLANE"> T  </i>
   <i type="logical" name="LSCALAPACK"> T  </i>
   <i type="logical" name="LSCAAWARE"> F  </i>
   <i type="logical" name="LSCALU"> F  </i>
   <i type="logical" name="LASYNC"> F  </i>
   <i type="logical" name="LORBITALREAL"> F  </i>
  </separator>
  <separator name="miscellaneous" >
   <i type="int" name="IDIOT">     3</i>
   <i type="int" name="ISPECIAL">     0</i>
   <i type="logical" name="LMUSIC"> F  </i>
   <v name="POMASS">     28.08500000</v>
   <v name="DARWINR">      0.00000000</v>
   <v name="DARWINV">      1.00000000</v>
   <i type="logical" name="LCORR"> T  </i>
  </separator>
  <i type="logical" name="GGA_COMPAT"> T  </i>
  <i type="logical" name="LBERRY"> F  </i>
  <i type="int" name="ICORELEVEL">     0</i>
  <i type="logical" name="LDAU"> F  </i>
  <i type="int" name="I_CONSTRAINED_M">     0</i>
  <separator name="electronic exchange-correlation" >
   <i type="string" name="GGA">--</i>
   <i type="int" name="VOSKOWN">     0</i>
   <i type="logical" name="LHFCALC"> T  </i>
   <i type="string" name="PRECFOCK">fast</i>
   <i type="logical" name="LSYMGRAD"> F  </i>
   <i type="logical" name="LHFONE"> F  </i>
   <i type="logical" name="LRHFCALC"> F  </i>
   <i type="logical" name="LTHOMAS"> F  </i>
   <i type="logical" name="LMODELHF"> F  </i>
   <i name="ENCUT4O">     -1.00000000</i>
   <i type="int" name="EXXOEP">     0</i>
   <i type="int" name="FOURORBIT">     0</i>
   <i name="AEXX">      0.25000000</i>
   <i name="HFALPHA">     -1.00000000</i>
   <i name="MCALPHA">      0.00000000</i>
   <i name="ALDAX">      0.75000000</i>
   <i name="AGGAX">      0.75000000</i>
   <i name="ALDAC">      1.00000000</i>
   <i name="AGGAC">      1.00000000</i>
   <i type="int" name="NKREDX">     1</i>
   <i type="int" name="NKREDY">     1</i>
   <i type="int" name="NKREDZ">     1</i>
   <i type="logical" name="SHIFTRED"> F  </i>
   <i type="logical" name="ODDONLY"> F  </i>
   <i type="logical" name="EVENONLY"> F  </i>
   <i type="int" name="LMAXFOCK">     4</i>
   <i type="int" name="NMAXFOCKAE">     1</i>
   <i type="logical" name="LFOCKAEDFT"> F  </i>
   <i name="HFSCREEN">      0.20000000</i>
   <i name="HFSCREENC">      0.20000000</i>
   <i type="int" name="NBANDSGWLOW">     1</i>
  </separator>
  <separator name="vdW DFT" >
   <i type="logical" name="LUSE_VDW"> F  </i>
   <i name="Zab_VDW">     -0.84910000</i>
   <i name="PARAM1">      0.12340000</i>
   <i name="PARAM2">      1.00000000</i>
   <i name="PARAM3">      0.00000000</i>
  </separator>
  <separator name="model GW" >
   <i type="int" name="MODEL_GW">     0</i>
   <i name="MODEL_EPS0">     12.01436085</i>
   <i name="MODEL_ALPHA">      1.00000000</i>
  </separator>
  <separator name="linear response parameters" >
   <i type="logical" name="LEPSILON"> F  </i>
   <i type="logical" name="LRPA"> F  </i>
   <i type="logical" name="LNABLA"> F  </i>
   <i type="logical" name="LVEL"> F  </i>
   <i type="int" name="KINTER">     0</i>
   <i name="CSHIFT">      0.10000000</i>
   <i name="OMEGAMAX">     -1.00000000</i>
   <i name="DEG_THRESHOLD">      0.00200000</i>
   <i name="RTIME">     -0.10000000</i>
   <i name="WPLASMAI">      0.00000000</i>
   <v name="DFIELD">      0.00000000      0.00000000      0.00000000</v>
   <v name="WPLASMA">      0.00000000      0.00000000      0.00000000      0.00000000      0.00000000      0.00000000      0.00000000      0.00000000      0.00000000</v>
  </separator>
  <separator name="orbital magnetization" >
   <i type="logical" name="NUCIND"> F  </i>
   <v name="MAGPOS">      0.00000000      0.00000000      0.00000000</v>
   <i type="logical" name="LNICSALL"> T  </i>
   <i type="logical" name="ORBITALMAG"> F  </i>
   <i type="logical" name="LMAGBLOCH"> F  </i>
   <i type="logical" name="LCHIMAG"> F  </i>
   <i type="logical" name="LGAUGE"> T  </i>
   <i type="int" name="MAGATOM">     0</i>
   <v name="MAGDIPOL">      0.00000000      0.00000000      0.00000000</v>
   <v name="AVECCONST">      0.00000000      0.00000000      0.00000000</v>
  </separator>
  <separator name="response functions" >
   <i type="logical" name="LADDER"> F  </i>
   <i type="logical" name="LRPAFORCE"> F  </i>
   <i type="logical" name="LFXC"> F  </i>
   <i type="logical" name="LHARTREE"> T  </i>
   <i type="int" name="IBSE">     0</i>
   <v type="int" name="KPOINT">    -1     0     0     0</v>
   <i type="logical" name="LTCTE"> F  </i>
   <i type="logical" name="LTETE"> F  </i>
   <i type="logical" name="LTRIPLET"> F  </i>
   <i type="logical" name="LFXCEPS"> F  </i>
   <i type="logical" name="LFXHEG"> F  </i>
   <i type="int" name="NATURALO">     2</i>
   <i type="logical" name="L2ORDER"> F  </i>
   <i type="logical" name="LMP2LT"> F  </i>
   <i type="logical" name="LUSEW"> F  </i>
   <i name="ENCUTGW">     -2.00000000</i>
   <i name="ENCUTGWSOFT">     -2.00000000</i>
   <i name="ENCUTLF">     -1.00000000</i>
   <i type="int" name="LMAXMP2">    -1</i>
   <i name="SCISSOR">      0.00000000</i>
   <i type="int" name="NOMEGA">     0</i>
   <i type="int" name="NOMEGAR">     0</i>
   <i type="int" name="NBANDSGW">    -1</i>
   <i type="int" name="NBANDSO">    -1</i>
   <i type="int" name="NBANDSV">    -1</i>
   <i type="int" name="NELM">   120</i>
   <i type="int" name="NELMHF">     1</i>
   <i type="int" name="DIM">     3</i>
   <i type="int" name="ANTIRES">     0</i>
   <i name="OMEGAMAX">    -30.00000000</i>
   <i name="OMEGAMIN">    -30.00000000</i>
   <i name="OMEGATL">   -200.00000000</i>
   <i type="int" name="OMEGAGRID">   140</i>
   <i name="CSHIFT">     -0.10000000</i>
   <i type="logical" name="SELFENERGY"> F  </i>
   <i type="logical" name="LSPECTRAL"> F  </i>
   <i type="logical" name="LSPECTRALGW"> F  </i>
   <i type="logical" name="LSINGLES"> F  </i>
   <i type="logical" name="LFERMIGW"> F  </i>
   <i type="logical" name="ODDONLYGW"> F  </i>
   <i type="logical" name="EVENONLYGW"> F  </i>
   <i type="int" name="NKREDLFX">     1</i>
   <i type="int" name="NKREDLFY">     1</i>
   <i type="int" name="NKREDLFZ">     1</i>
   <i type="int" name="MAXMEM">  2800</i>
   <i type="int" name="TELESCOPE">     0</i>
   <i type="int" name="TAUPAR">     1</i>
   <i type="int" name="OMEGAPAR">    -1</i>
   <i name="LAMBDA">      1.00000000</i>
  </separator>
  <separator name="External order field" >
   <i name="OFIELD_KAPPA">      0.00000000</i>
   <v name="OFIELD_K">      0.00000000      0.00000000      0.00000000</v>
   <i name="OFIELD_Q6_NEAR">      0.00000000</i>
   <i name="OFIELD_Q6_FAR">      0.00000000</i>
   <i name="OFIELD_A">      0.00000000</i>
  </separator>
 </parameters>
 <atominfo>
  <atoms>     128 </atoms>
  <types>       1 </types>
  <array name="atoms" >
   <dimension dim="1">ion</dimension>
   <field type="string">element</field>
   <field type="int">atomtype</field>
   <set>
    <rc><c>Si</c><c>   1</c></rc>
    <rc><c>Si</c><c>   1</c></rc>
    <rc><c>Si</c><c>   1</c></rc>
    <rc><c>Si</c><c>   1</c></rc>
    <rc><c>Si</c><c>   1</c></rc>
    <rc><c>Si</c><c>   1</c></rc>
    <rc><c>Si</c><c>   1</c></rc>
    <rc><c>Si</c><c>   1</c></rc>
    <rc><c>Si</c><c>   1</c></rc>
    <rc><c>Si</c><c>   1</c></rc>
    <rc><c>Si</c><c>   1</c></rc>
    <rc><c>Si</c><c>   1</c></rc>
    <rc><c>Si</c><c>   1</c></rc>
    <rc><c>Si</c><c>   1</c></rc>
    <rc><c>Si</c><c>   1</c></rc>
    <rc><c>Si</c><c>   1</c></rc>
    <rc><c>Si</c><c>   1</c></rc>
    <rc><c>Si</c><c>   1</c></rc>
    <rc><c>Si</c><c>   1</c></rc>
    <rc><c>Si</c><c>   1</c></rc>
    <rc><c>Si</c><c>   1</c></rc>
    <rc><c>Si</c><c>   1</c></rc>
    <rc><c>Si</c><c>   1</c></rc>
    <rc><c>Si</c><c>   1</c></rc>
    <rc><c>Si</c><c>   1</c></rc>
    <rc><c>Si</c><c>   1</c></rc>
    <rc><c>Si</c><c>   1</c></rc>
    <rc><c>Si</c><c>   1</c></rc>
    <rc><c>Si</c><c>   1</c></rc>
    <rc><c>Si</c><c>   1</c></rc>
    <rc><c>Si</c><c>   1</c></rc>
    <rc><c>Si</c><c>   1</c></rc>
    <rc><c>Si</c><c>   1</c></rc>
    <rc><c>Si</c><c>   1</c></rc>
    <rc><c>Si</c><c>   1</c></rc>
    <rc><c>Si</c><c>   1</c></rc>
    <rc><c>Si</c><c>   1</c></rc>
    <rc><c>Si</c><c>   1</c></rc>
    <rc><c>Si</c><c>   1</c></rc>
    <rc><c>Si</c><c>   1</c></rc>
    <rc><c>Si</c><c>   1</c></rc>
    <rc><c>Si</c><c>   1</c></rc>
    <rc><c>Si</c><c>   1</c></rc>
    <rc><c>Si</c><c>   1</c></rc>
    <rc><c>Si</c><c>   1</c></rc>
    <rc><c>Si</c><c>   1</c></rc>
    <rc><c>Si</c><c>   1</c></rc>
    <rc><c>Si</c><c>   1</c></rc>
    <rc><c>Si</c><c>   1</c></rc>
    <rc><c>Si</c><c>   1</c></rc>
    <rc><c>Si</c><c>   1</c></rc>
    <rc><c>Si</c><c>   1</c></rc>
    <rc><c>Si</c><c>   1</c></rc>
    <rc><c>Si</c><c>   1</c></rc>
    <rc><c>Si</c><c>   1</c></rc>
    <rc><c>Si</c><c>   1</c></rc>
    <rc><c>Si</c><c>   1</c></rc>
    <rc><c>Si</c><c>   1</c></rc>
    <rc><c>Si</c><c>   1</c></rc>
    <rc><c>Si</c><c>   1</c></rc>
    <rc><c>Si</c><c>   1</c></rc>
    <rc><c>Si</c><c>   1</c></rc>
    <rc><c>Si</c><c>   1</c></rc>
    <rc><c>Si</c><c>   1</c></rc>
    <rc><c>Si</c><c>   1</c></rc>
    <rc><c>Si</c><c>   1</c></rc>
    <rc><c>Si</c><c>   1</c></rc>
    <rc><c>Si</c><c>   1</c></rc>
    <rc><c>Si</c><c>   1</c></rc>
    <rc><c>Si</c><c>   1</c></rc>
    <rc><c>Si</c><c>   1</c></rc>
    <rc><c>Si</c><c>   1</c></rc>
    <rc><c>Si</c><c>   1</c></rc>
    <rc><c>Si</c><c>   1</c></rc>
    <rc><c>Si</c><c>   1</c></rc>
    <rc><c>Si</c><c>   1</c></rc>
    <rc><c>Si</c><c>   1</c></rc>
    <rc><c>Si</c><c>   1</c></rc>
    <rc><c>Si</c><c>   1</c></rc>
    <rc><c>Si</c><c>   1</c></rc>
    <rc><c>Si</c><c>   1</c></rc>
    <rc><c>Si</c><c>   1</c></rc>
    <rc><c>Si</c><c>   1</c></rc>
    <rc><c>Si</c><c>   1</c></rc>
    <rc><c>Si</c><c>   1</c></rc>
    <rc><c>Si</c><c>   1</c></rc>
    <rc><c>Si</c><c>   1</c></rc>
    <rc><c>Si</c><c>   1</c></rc>
    <rc><c>Si</c><c>   1</c></rc>
    <rc><c>Si</c><c>   1</c></rc>
    <rc><c>Si</c><c>   1</c></rc>
    <rc><c>Si</c><c>   1</c></rc>
    <rc><c>Si</c><c>   1</c></rc>
    <rc><c>Si</c><c>   1</c></rc>
    <rc><c>Si</c><c>   1</c></rc>
    <rc><c>Si</c><c>   1</c></rc>
    <rc><c>Si</c><c>   1</c></rc>
    <rc><c>Si</c><c>   1</c></rc>
    <rc><c>Si</c><c>   1</c></rc>
    <rc><c>Si</c><c>   1</c></rc>
    <rc><c>Si</c><c>   1</c></rc>
    <rc><c>Si</c><c>   1</c></rc>
    <rc><c>Si</c><c>   1</c></rc>
    <rc><c>Si</c><c>   1</c></rc>
    <rc><c>Si</c><c>   1</c></rc>
    <rc><c>Si</c><c>   1</c></rc>
    <rc><c>Si</c><c>   1</c></rc>
    <rc><c>Si</c><c>   1</c></rc>
    <rc><c>Si</c><c>   1</c></rc>
    <rc><c>Si</c><c>   1</c></rc>
    <rc><c>Si</c><c>   1</c></rc>
    <rc><c>Si</c><c>   1</c></rc>
    <rc><c>Si</c><c>   1</c></rc>
    <rc><c>Si</c><c>   1</c></rc>
    <rc><c>Si</c><c>   1</c></rc>
    <rc><c>Si</c><c>   1</c></rc>
    <rc><c>Si</c><c>   1</c></rc>
    <rc><c>Si</c><c>   1</c></rc>
    <rc><c>Si</c><c>   1</c></rc>
    <rc><c>Si</c><c>   1</c></rc>
    <rc><c>Si</c><c>   1</c></rc>
    <rc><c>Si</c><c>   1</c></rc>
    <rc><c>Si</c><c>   1</c></rc>
    <rc><c>Si</c><c>   1</c></rc>
    <rc><c>Si</c><c>   1</c></rc>
    <rc><c>Si</c><c>   1</c></rc>
    <rc><c>Si</c><c>   1</c></rc>
    <rc><c>Si</c><c>   1</c></rc>
   </set>
  </array>
  <array name="atomtypes" >
   <dimension dim="1">type</dimension>
   <field type="int">atomspertype</field>
   <field type="string">element</field>
   <field>mass</field>
   <field>valence</field>
   <field type="string">pseudopotential</field>
   <set>
    <rc><c> 128</c><c>Si</c><c>     28.08500000</c><c>      4.00000000</c><c>  PAW_PBE Si 05Jan2001                  </c></rc>
   </set>
  </array>
 </atominfo>
 <structure name="initialpos" >
  <crystal>
   <varray name="basis" >
    <v>      21.72400000       0.00000000       0.00000000 </v>
    <v>       0.00000000      10.86200000       0.00000000 </v>
    <v>       0.00000000       0.00000000      10.86200000 </v>
   </varray>
   <i name="volume">   2563.06364786 </i>
   <varray name="rec_basis" >
    <v>       0.04603204       0.00000000       0.00000000 </v>
    <v>       0.00000000       0.09206408       0.00000000 </v>
    <v>       0.00000000       0.00000000       0.09206408 </v>
   </varray>
  </crystal>
  <varray name="positions" >
   <v>       0.00000000       0.00000000       0.00000000 </v>
   <v>       0.00000000       0.25000000       0.25000000 </v>
   <v>       0.12500000       0.00000000       0.25000000 </v>
   <v>       0.12500000       0.25000000       0.00000000 </v>
   <v>       0.06250000       0.12500000       0.12500000 </v>
   <v>       0.06250000       0.37500000       0.37500000 </v>
   <v>       0.18750000       0.12500000       0.37500000 </v>
   <v>       0.18750000       0.37500000       0.12500000 </v>
   <v>       0.00000000       0.00000000       0.50000000 </v>
   <v>       0.00000000       0.25000000       0.75000000 </v>
   <v>       0.12500000       0.00000000       0.75000000 </v>
   <v>       0.12500000       0.25000000       0.50000000 </v>
   <v>       0.06250000       0.12500000       0.62500000 </v>
   <v>       0.06250000       0.37500000       0.87500000 </v>
   <v>       0.18750000       0.12500000       0.87500000 </v>
   <v>       0.18750000       0.37500000       0.62500000 </v>
   <v>       0.00000000       0.50000000       0.00000000 </v>
   <v>       0.00000000       0.75000000       0.25000000 </v>
   <v>       0.12500000       0.50000000       0.25000000 </v>
   <v>       0.12500000       0.75000000       0.00000000 </v>
   <v>       0.06250000       0.62500000       0.12500000 </v>
   <v>       0.06250000       0.87500000       0.37500000 </v>
   <v>       0.18750000       0.62500000       0.37500000 </v>
   <v>       0.18750000       0.87500000       0.12500000 </v>
   <v>       0.00000000       0.50000000       0.50000000 </v>
   <v>       0.00000000       0.75000000       0.75000000 </v>
   <v>       0.12500000       0.50000000       0.75000000 </v>
   <v>       0.12500000       0.75000000       0.50000000 </v>
   <v>       0.06250000       0.62500000       0.62500000 </v>
   <v>       0.06250000       0.87500000       0.87500000 </v>
   <v>       0.18750000       0.62500000       0.87500000 </v>
   <v>       0.18750000       0.87500000       0.62500000 </v>
   <v>       0.25000000       0.00000000       0.00000000 </v>
   <v>       0.25000000       0.25000000       0.25000000 </v>
   <v>       0.37500000       0.00000000       0.25000000 </v>
   <v>       0.37500000       0.25000000       0.00000000 </v>
   <v>       0.31250000       0.12500000       0.12500000 </v>
   <v>       0.31250000       0.37500000       0.37500000 </v>
   <v>       0.43750000       0.12500000       0.37500000 </v>
   <v>       0.43750000       0.37500000       0.12500000 </v>
   <v>       0.25000000       0.00000000       0.50000000 </v>
   <v>       0.25000000       0.25000000       0.75000000 </v>
   <v>       0.37500000       0.00000000       0.75000000 </v>
   <v>       0.37500000       0.25000000       0.50000000 </v>
   <v>       0.31250000       0.12500000       0.62500000 </v>
   <v>       0.31250000       0.37500000       0.87500000 </v>
   <v>       0.43750000       0.12500000       0.87500000 </v>
   <v>       0.43750000       0.37500000       0.62500000 </v>
   <v>       0.25000000       0.50000000       0.00000000 </v>
   <v>       0.25000000       0.75000000       0.25000000 </v>
   <v>       0.37500000       0.50000000       0.25000000 </v>
   <v>       0.37500000       0.75000000       0.00000000 </v>
   <v>       0.31250000       0.62500000       0.12500000 </v>
   <v>       0.31250000       0.87500000       0.37500000 </v>
   <v>       0.43750000       0.62500000       0.37500000 </v>
   <v>       0.43750000       0.87500000       0.12500000 </v>
   <v>       0.25000000       0.50000000       0.50000000 </v>
   <v>       0.25000000       0.75000000       0.75000000 </v>
   <v>       0.37500000       0.50000000       0.75000000 </v>
   <v>       0.37500000       0.75000000       0.50000000 </v>
   <v>       0.31250000       0.62500000       0.62500000 </v>
   <v>       0.31250000       0.87500000       0.87500000 </v>
   <v>       0.43750000       0.62500000       0.87500000 </v>
   <v>       0.43750000       0.87500000       0.62500000 </v>
   <v>       0.50000000       0.00000000       0.00000000 </v>
   <v>       0.50000000       0.25000000       0.25000000 </v>
   <v>       0.62500000       0.00000000       0.25000000 </v>
   <v>       0.62500000       0.25000000       0.00000000 </v>
   <v>       0.56250000       0.12500000       0.12500000 </v>
   <v>       0.56250000       0.37500000       0.37500000 </v>
   <v>       0.68750000       0.12500000       0.37500000 </v>
   <v>       0.68750000       0.37500000       0.12500000 </v>
   <v>       0.50000000       0.00000000       0.50000000 </v>
   <v>       0.50000000       0.25000000       0.75000000 </v>
   <v>       0.62500000       0.00000000       0.75000000 </v>
   <v>       0.62500000       0.25000000       0.50000000 </v>
   <v>       0.56250000       0.12500000       0.62500000 </v>
   <v>       0.56250000       0.37500000       0.87500000 </v>
   <v>       0.68750000       0.12500000       0.87500000 </v>
   <v>       0.68750000       0.37500000       0.62500000 </v>
   <v>       0.50000000       0.50000000       0.00000000 </v>
   <v>       0.50000000       0.75000000       0.25000000 </v>
   <v>       0.62500000       0.50000000       0.25000000 </v>
   <v>       0.62500000       0.75000000       0.00000000 </v>
   <v>       0.56250000       0.62500000       0.12500000 </v>
   <v>       0.56250000       0.87500000       0.37500000 </v>
   <v>       0.68750000       0.62500000       0.37500000 </v>
   <v>       0.68750000       0.87500000       0.12500000 </v>
   <v>       0.50000000       0.50000000       0.50000000 </v>
   <v>       0.50000000       0.75000000       0.75000000 </v>
   <v>       0.62500000       0.50000000       0.75000000 </v>
   <v>       0.62500000       0.75000000       0.50000000 </v>
   <v>       0.56250000       0.62500000       0.62500000 </v>
   <v>       0.56250000       0.87500000       0.87500000 </v>
   <v>       0.68750000       0.62500000       0.87500000 </v>
   <v>       0.68750000       0.87500000       0.62500000 </v>
   <v>       0.75000000       0.00000000       0.00000000 </v>
   <v>       0.75000000       0.25000000       0.25000000 </v>
   <v>       0.87500000       0.00000000       0.25000000 </v>
   <v>       0.87500000       0.25000000       0.00000000 </v>
   <v>       0.81250000       0.12500000       0.12500000 </v>
   <v>       0.81250000       0.37500000       0.37500000 </v>
   <v>       0.93750000       0.12500000       0.37500000 </v>
   <v>       0.93750000       0.37500000       0.12500000 </v>
   <v>       0.75000000       0.00000000       0.50000000 </v>
   <v>       0.75000000       0.25000000       0.75000000 </v>
   <v>       0.87500000       0.00000000       0.75000000 </v>
   <v>       0.87500000       0.25000000       0.50000000 </v>
   <v>       0.81250000       0.12500000       0.62500000 </v>
   <v>       0.81250000       0.37500000       0.87500000 </v>
   <v>       0.93750000       0.12500000       0.87500000 </v>
   <v>       0.93750000       0.37500000       0.62500000 </v>
   <v>       0.75000000       0.50000000       0.00000000 </v>
   <v>       0.75000000       0.75000000       0.25000000 </v>
   <v>       0.87500000       0.50000000       0.25000000 </v>
   <v>       0.87500000       0.75000000       0.00000000 </v>
   <v>       0.81250000       0.62500000       0.12500000 </v>
   <v>       0.81250000       0.87500000       0.37500000 </v>
   <v>       0.93750000       0.62500000       0.37500000 </v>
   <v>       0.93750000       0.87500000       0.12500000 </v>
   <v>       0.75000000       0.50000000       0.50000000 </v>
   <v>       0.75000000       0.75000000       0.75000000 </v>
   <v>       0.87500000       0.50000000       0.75000000 </v>
   <v>       0.87500000       0.75000000       0.50000000 </v>
   <v>       0.81250000       0.62500000       0.62500000 </v>
   <v>       0.81250000       0.87500000       0.87500000 </v>
   <v>       0.93750000       0.62500000       0.87500000 </v>
   <v>       0.93750000       0.87500000       0.62500000 </v>
  </varray>
 </structure>
 <calculation>
  <scstep>
   <time name="total">    3.79    3.79</time>
   <energy>
    <i name="alphaZ">    215.18651536 </i>
    <i name="ewald"> -14625.37619486 </i>
    <i name="hartreedc">   -965.06345144 </i>
    <i name="XCdc">   -922.08320528 </i>
    <i name="pawpsdc">  57697.86553523 </i>
    <i name="pawaedc"> -55930.83669569 </i>
    <i name="eentropy">     -0.00000000 </i>
    <i name="bandstr">    -45.22574281 </i>
    <i name="atom">  13055.77664170 </i>
    <i name="e_fr_energy">   -798.45901820 </i>
    <i name="e_wo_entrp">   -798.45901820 </i>
    <i name="e_0_energy">   -798.45901820 </i>
   </energy>
  </scstep>
  <scstep>
   <time name="total">    3.77    3.77</time>
   <energy>
    <i name="e_fr_energy">   -799.82466621 </i>
    <i name="e_wo_entrp">   -799.82466621 </i>
    <i name="e_0_energy">   -799.82466621 </i>
   </energy>
  </scstep>
  <scstep>
   <time name="total">    3.78    3.78</time>
   <energy>
    <i name="e_fr_energy">   -800.64884725 </i>
    <i name="e_wo_entrp">   -800.64884725 </i>
    <i name="e_0_energy">   -800.64884725 </i>
   </energy>
  </scstep>
  <scstep>
   <time name="total">    3.78    3.78</time>
   <energy>
    <i name="e_fr_energy">   -800.96402512 </i>
    <i name="e_wo_entrp">   -800.96402512 </i>
    <i name="e_0_energy">   -800.96402512 </i>
   </energy>
  </scstep>
  <scstep>
   <time name="total">    3.78    3.78</time>
   <energy>
    <i name="e_fr_energy">   -801.07769343 </i>
    <i name="e_wo_entrp">   -801.07769343 </i>
    <i name="e_0_energy">   -801.07769343 </i>
   </energy>
  </scstep>
  <scstep>
   <time name="total">    3.76    3.76</time>
   <energy>
    <i name="e_fr_energy">   -801.12249997 </i>
    <i name="e_wo_entrp">   -801.12249997 </i>
    <i name="e_0_energy">   -801.12249997 </i>
   </energy>
  </scstep>
  <scstep>
   <time name="total">    3.78    3.78</time>
   <energy>
    <i name="e_fr_energy">   -801.14290042 </i>
    <i name="e_wo_entrp">   -801.14290042 </i>
    <i name="e_0_energy">   -801.14290042 </i>
   </energy>
  </scstep>
  <scstep>
   <time name="total">    3.77    3.77</time>
   <energy>
    <i name="e_fr_energy">   -801.15325037 </i>
    <i name="e_wo_entrp">   -801.15325037 </i>
    <i name="e_0_energy">   -801.15325037 </i>
   </energy>
  </scstep>
  <scstep>
   <time name="total">    3.76    3.76</time>
   <energy>
    <i name="e_fr_energy">   -801.15880813 </i>
    <i name="e_wo_entrp">   -801.15880813 </i>
    <i name="e_0_energy">   -801.15880813 </i>
   </energy>
  </scstep>
  <scstep>
   <time name="total">    3.77    3.78</time>
   <energy>
    <i name="e_fr_energy">   -801.16192163 </i>
    <i name="e_wo_entrp">   -801.16192163 </i>
    <i name="e_0_energy">   -801.16192163 </i>
   </energy>
  </scstep>
  <scstep>
   <time name="total">    3.76    3.76</time>
   <energy>
    <i name="e_fr_energy">   -801.16374001 </i>
    <i name="e_wo_entrp">   -801.16374001 </i>
    <i name="e_0_energy">   -801.16374001 </i>
   </energy>
  </scstep>
  <scstep>
   <time name="total">    3.77    3.77</time>
   <energy>
    <i name="e_fr_energy">   -801.16485747 </i>
    <i name="e_wo_entrp">   -801.16485747 </i>
    <i name="e_0_energy">   -801.16485747 </i>
   </energy>
  </scstep>
  <scstep>
   <time name="total">    3.77    3.77</time>
   <energy>
    <i name="e_fr_energy">   -801.16558597 </i>
    <i name="e_wo_entrp">   -801.16558597 </i>
    <i name="e_0_energy">   -801.16558597 </i>
   </energy>
  </scstep>
  <scstep>
   <time name="total">    3.77    3.77</time>
   <energy>
    <i name="e_fr_energy">   -801.16608645 </i>
    <i name="e_wo_entrp">   -801.16608645 </i>
    <i name="e_0_energy">   -801.16608645 </i>
   </energy>
  </scstep>
  <scstep>
   <time name="total">    3.76    3.76</time>
   <energy>
    <i name="e_fr_energy">   -801.16644591 </i>
    <i name="e_wo_entrp">   -801.16644591 </i>
    <i name="e_0_energy">   -801.16644591 </i>
   </energy>
  </scstep>
  <scstep>
   <time name="total">    3.77    3.77</time>
   <energy>
    <i name="e_fr_energy">   -801.16671341 </i>
    <i name="e_wo_entrp">   -801.16671341 </i>
    <i name="e_0_energy">   -801.16671341 </i>
   </energy>
  </scstep>
  <scstep>
   <time name="total">    3.78    3.78</time>
   <energy>
    <i name="e_fr_energy">   -801.16691784 </i>
    <i name="e_wo_entrp">   -801.16691784 </i>
    <i name="e_0_energy">   -801.16691784 </i>
   </energy>
  </scstep>
  <scstep>
   <time name="total">    3.77    3.77</time>
   <energy>
    <i name="e_fr_energy">   -801.16707825 </i>
    <i name="e_wo_entrp">   -801.16707825 </i>
    <i name="e_0_energy">   -801.16707825 </i>
   </energy>
  </scstep>
  <scstep>
   <time name="total">    3.76    3.76</time>
   <energy>
    <i name="e_fr_energy">   -801.16721479 </i>
    <i name="e_wo_entrp">   -801.16721479 </i>
    <i name="e_0_energy">   -801.16721479 </i>
   </energy>
  </scstep>
  <scstep>
   <time name="total">    3.78    3.78</time>
   <energy>
    <i name="e_fr_energy">   -801.16733721 </i>
    <i name="e_wo_entrp">   -801.16733721 </i>
    <i name="e_0_energy">   -801.16733721 </i>
   </energy>
  </scstep>
  <scstep>
   <time name="total">    3.76    3.76</time>
   <energy>
    <i name="e_fr_energy">   -801.16745018 </i>
    <i name="e_wo_entrp">   -801.16745018 </i>
    <i name="e_0_energy">   -801.16745018 </i>
   </energy>
  </scstep>
  <scstep>
   <time name="total">    3.77    3.77</time>
   <energy>
    <i name="e_fr_energy">   -801.16755624 </i>
    <i name="e_wo_entrp">   -801.16755624 </i>
    <i name="e_0_energy">   -801.16755624 </i>
   </energy>
  </scstep>
  <scstep>
   <time name="total">    3.78    3.79</time>
   <energy>
    <i name="e_fr_energy">   -801.16765530 </i>
    <i name="e_wo_entrp">   -801.16765530 </i>
    <i name="e_0_energy">   -801.16765530 </i>
   </energy>
  </scstep>
  <scstep>
   <time name="total">    3.78    3.78</time>
   <energy>
    <i name="e_fr_energy">   -801.16774786 </i>
    <i name="e_wo_entrp">   -801.16774786 </i>
    <i name="e_0_energy">   -801.16774786 </i>
   </energy>
  </scstep>
  <scstep>
   <time name="total">    3.77    3.77</time>
   <energy>
    <i name="e_fr_energy">   -801.16783470 </i>
    <i name="e_wo_entrp">   -801.16783470 </i>
    <i name="e_0_energy">   -801.16783470 </i>
   </energy>
  </scstep>
  <scstep>
   <time name="total">    3.77    3.77</time>
   <energy>
    <i name="e_fr_energy">   -801.16791579 </i>
    <i name="e_wo_entrp">   -801.16791579 </i>
    <i name="e_0_energy">   -801.16791579 </i>
   </energy>
  </scstep>
  <scstep>
   <time name="total">    3.76    3.76</time>
   <energy>
    <i name="e_fr_energy">   -801.16799077 </i>
    <i name="e_wo_entrp">   -801.16799077 </i>
    <i name="e_0_energy">   -801.16799077 </i>
   </energy>
  </scstep>
  <scstep>
   <time name="total">    3.77    3.77</time>
   <energy>
    <i name="e_fr_energy">   -801.16805905 </i>
    <i name="e_wo_entrp">   -801.16805905 </i>
    <i name="e_0_energy">   -801.16805905 </i>
   </energy>
  </scstep>
  <scstep>
   <time name="total">    3.76    3.76</time>
   <energy>
    <i name="e_fr_energy">   -801.16811971 </i>
    <i name="e_wo_entrp">   -801.16811971 </i>
    <i name="e_0_energy">   -801.16811971 </i>
   </energy>
  </scstep>
  <scstep>
   <time name="total">    3.78    3.78</time>
   <energy>
    <i name="e_fr_energy">   -801.16817269 </i>
    <i name="e_wo_entrp">   -801.16817269 </i>
    <i name="e_0_energy">   -801.16817269 </i>
   </energy>
  </scstep>
  <scstep>
   <time name="total">    3.78    3.78</time>
   <energy>
    <i name="e_fr_energy">   -801.16821774 </i>
    <i name="e_wo_entrp">   -801.16821774 </i>
    <i name="e_0_energy">   -801.16821774 </i>
   </energy>
  </scstep>
  <scstep>
   <time name="total">    3.77    3.77</time>
   <energy>
    <i name="e_fr_energy">   -801.16825505 </i>
    <i name="e_wo_entrp">   -801.16825505 </i>
    <i name="e_0_energy">   -801.16825505 </i>
   </energy>
  </scstep>
  <scstep>
   <time name="total">    3.77    3.77</time>
   <energy>
    <i name="e_fr_energy">   -801.16828501 </i>
    <i name="e_wo_entrp">   -801.16828501 </i>
    <i name="e_0_energy">   -801.16828501 </i>
   </energy>
  </scstep>
  <scstep>
   <time name="total">    3.77    3.77</time>
   <energy>
    <i name="e_fr_energy">   -801.16830834 </i>
    <i name="e_wo_entrp">   -801.16830834 </i>
    <i name="e_0_energy">   -801.16830834 </i>
   </energy>
  </scstep>
  <scstep>
   <time name="total">    3.77    3.77</time>
   <energy>
    <i name="e_fr_energy">   -801.16832551 </i>
    <i name="e_wo_entrp">   -801.16832551 </i>
    <i name="e_0_energy">   -801.16832551 </i>
   </energy>
  </scstep>
  <scstep>
   <time name="total">    3.77    3.77</time>
   <energy>
    <i name="e_fr_energy">   -801.16833728 </i>
    <i name="e_wo_entrp">   -801.16833728 </i>
    <i name="e_0_energy">   -801.16833728 </i>
   </energy>
  </scstep>
  <scstep>
   <time name="total">    3.77    3.77</time>
   <energy>
    <i name="e_fr_energy">   -801.16834114 </i>
    <i name="e_wo_entrp">   -801.16834114 </i>
    <i name="e_0_energy">   -801.16834114 </i>
   </energy>
  </scstep>
  <scstep>
   <time name="total">    3.78    3.78</time>
   <energy>
    <i name="e_fr_energy">   -801.16832607 </i>
    <i name="e_wo_entrp">   -801.16832607 </i>
    <i name="e_0_energy">   -801.16832607 </i>
   </energy>
  </scstep>
  <scstep>
   <time name="total">    3.78    3.79</time>
   <energy>
    <i name="e_fr_energy">   -801.16823280 </i>
    <i name="e_wo_entrp">   -801.16823280 </i>
    <i name="e_0_energy">   -801.16823280 </i>
   </energy>
  </scstep>
  <scstep>
   <time name="total">    3.76    3.76</time>
   <energy>
    <i name="e_fr_energy">   -801.16766372 </i>
    <i name="e_wo_entrp">   -801.16766372 </i>
    <i name="e_0_energy">   -801.16766372 </i>
   </energy>
  </scstep>
  <scstep>
   <time name="total">    3.77    3.77</time>
   <energy>
    <i name="e_fr_energy">   -801.16469475 </i>
    <i name="e_wo_entrp">   -801.16469475 </i>
    <i name="e_0_energy">   -801.16469475 </i>
   </energy>
  </scstep>
  <scstep>
   <time name="total">    3.77    3.77</time>
   <energy>
    <i name="e_fr_energy">   -801.14989818 </i>
    <i name="e_wo_entrp">   -801.14989818 </i>
    <i name="e_0_energy">   -801.14989818 </i>
   </energy>
  </scstep>
  <scstep>
   <time name="total">    3.79    3.79</time>
   <energy>
    <i name="e_fr_energy">   -801.09463153 </i>
    <i name="e_wo_entrp">   -801.09463153 </i>
    <i name="e_0_energy">   -801.09463153 </i>
   </energy>
  </scstep>
  <scstep>
   <time name="total">    3.77    3.77</time>
   <energy>
    <i name="e_fr_energy">   -800.94345629 </i>
    <i name="e_wo_entrp">   -800.94345629 </i>
    <i name="e_0_energy">   -800.94345629 </i>
   </energy>
  </scstep>
  <scstep>
   <time name="total">    3.77    3.77</time>
   <energy>
    <i name="e_fr_energy">   -800.66513027 </i>
    <i name="e_wo_entrp">   -800.66513027 </i>
    <i name="e_0_energy">   -800.66513027 </i>
   </energy>
  </scstep>
  <scstep>
   <time name="total">    3.77    3.77</time>
   <energy>
    <i name="e_fr_energy">   -800.32631694 </i>
    <i name="e_wo_entrp">   -800.32631694 </i>
    <i name="e_0_energy">   -800.32631694 </i>
   </energy>
  </scstep>
  <scstep>
   <time name="total">    3.76    3.76</time>
   <energy>
    <i name="e_fr_energy">   -800.06440469 </i>
    <i name="e_wo_entrp">   -800.06440469 </i>
    <i name="e_0_energy">   -800.06440469 </i>
   </energy>
  </scstep>
  <scstep>
   <time name="total">    3.76    3.77</time>
   <energy>
    <i name="e_fr_energy">   -799.98823857 </i>
    <i name="e_wo_entrp">   -799.98823857 </i>
    <i name="e_0_energy">   -799.98823857 </i>
   </energy>
  </scstep>
  <scstep>
   <time name="total">    3.77    3.77</time>
   <energy>
    <i name="e_fr_energy">   -800.26961119 </i>
    <i name="e_wo_entrp">   -800.26961119 </i>
    <i name="e_0_energy">   -800.26961119 </i>
   </energy>
  </scstep>
  <scstep>
   <time name="total">    3.76    3.76</time>
   <energy>
    <i name="e_fr_energy">   -800.80672419 </i>
    <i name="e_wo_entrp">   -800.80672419 </i>
    <i name="e_0_energy">   -800.80672419 </i>
   </energy>
  </scstep>
  <scstep>
   <time name="total">    3.78    3.78</time>
   <energy>
    <i name="e_fr_energy">   -801.12441984 </i>
    <i name="e_wo_entrp">   -801.12441984 </i>
    <i name="e_0_energy">   -801.12441984 </i>
   </energy>
  </scstep>
  <scstep>
   <time name="total">    3.77    3.77</time>
   <energy>
    <i name="e_fr_energy">   -801.14786027 </i>
    <i name="e_wo_entrp">   -801.14786027 </i>
    <i name="e_0_energy">   -801.14786027 </i>
   </energy>
  </scstep>
  <scstep>
   <time name="total">    3.77    3.77</time>
   <energy>
    <i name="e_fr_energy">   -801.15365643 </i>
    <i name="e_wo_entrp">   -801.15365643 </i>
    <i name="e_0_energy">   -801.15365643 </i>
   </energy>
  </scstep>
  <scstep>
   <time name="total">    3.77    3.77</time>
   <energy>
    <i name="e_fr_energy">   -801.16643881 </i>
    <i name="e_wo_entrp">   -801.16643881 </i>
    <i name="e_0_energy">   -801.16643881 </i>
   </energy>
  </scstep>
  <scstep>
   <time name="total">    3.78    3.78</time>
   <energy>
    <i name="e_fr_energy">   -801.16631189 </i>
    <i name="e_wo_entrp">   -801.16631189 </i>
    <i name="e_0_energy">   -801.16631189 </i>
   </energy>
  </scstep>
  <scstep>
   <time name="total">    3.77    3.77</time>
   <energy>
    <i name="e_fr_energy">   -801.16801456 </i>
    <i name="e_wo_entrp">   -801.16801456 </i>
    <i name="e_0_energy">   -801.16801456 </i>
   </energy>
  </scstep>
  <scstep>
   <time name="total">    3.77    3.77</time>
   <energy>
    <i name="e_fr_energy">   -801.16807416 </i>
    <i name="e_wo_entrp">   -801.16807416 </i>
    <i name="e_0_energy">   -801.16807416 </i>
   </energy>
  </scstep>
  <scstep>
   <time name="total">    3.76    3.77</time>
   <energy>
    <i name="e_fr_energy">   -801.16830525 </i>
    <i name="e_wo_entrp">   -801.16830525 </i>
    <i name="e_0_energy">   -801.16830525 </i>
   </energy>
  </scstep>
  <scstep>
   <time name="total">    3.77    3.77</time>
   <energy>
    <i name="e_fr_energy">   -801.16831950 </i>
    <i name="e_wo_entrp">   -801.16831950 </i>
    <i name="e_0_energy">   -801.16831950 </i>
   </energy>
  </scstep>
  <scstep>
   <time name="total">    3.76    3.76</time>
   <energy>
    <i name="e_fr_energy">   -801.16835201 </i>
    <i name="e_wo_entrp">   -801.16835201 </i>
    <i name="e_0_energy">   -801.16835201 </i>
   </energy>
  </scstep>
  <scstep>
   <time name="total">    3.77    3.77</time>
   <energy>
    <i name="e_fr_energy">   -801.16835687 </i>
    <i name="e_wo_entrp">   -801.16835687 </i>
    <i name="e_0_energy">   -801.16835687 </i>
   </energy>
  </scstep>
  <scstep>
   <time name="total">    3.77    3.77</time>
   <energy>
    <i name="e_fr_energy">   -801.16835990 </i>
    <i name="e_wo_entrp">   -801.16835990 </i>
    <i name="e_0_energy">   -801.16835990 </i>
   </energy>
  </scstep>
  <scstep>
   <time name="total">    3.77    3.77</time>
   <energy>
    <i name="e_fr_energy">   -801.16836113 </i>
    <i name="e_wo_entrp">   -801.16836113 </i>
    <i name="e_0_energy">   -801.16836113 </i>
   </energy>
  </scstep>
  <scstep>
   <time name="total">    7.02    7.02</time>
   <energy>
    <i name="alphaZ">    215.18651536 </i>
    <i name="ewald"> -14625.37619486 </i>
    <i name="hartreedc">   -967.45120664 </i>
    <i name="XCdc">   -919.05634887 </i>
    <i name="pawpsdc"> 109511.37707137 </i>
    <i name="pawaedc">-107743.07768914 </i>
    <i name="eentropy">     -0.00000000 </i>
    <i name="bandstr">    -53.40473412 </i>
    <i name="atom">  13055.77664170 </i>
    <i name="e_fr_energy">   -801.16836138 </i>
    <i name="e_wo_entrp">   -801.16836138 </i>
    <i name="e_0_energy">   -801.16836138 </i>
   </energy>
  </scstep>
  <structure>
   <crystal>
    <varray name="basis" >
     <v>      21.72400000       0.00000000       0.00000000 </v>
     <v>       0.00000000      10.86200000       0.00000000 </v>
     <v>       0.00000000       0.00000000      10.86200000 </v>
    </varray>
    <i name="volume">   2563.06364786 </i>
    <varray name="rec_basis" >
     <v>       0.04603204       0.00000000       0.00000000 </v>
     <v>       0.00000000       0.09206408       0.00000000 </v>
     <v>       0.00000000       0.00000000       0.09206408 </v>
    </varray>
   </crystal>
   <varray name="positions" >
    <v>       0.00000000       0.00000000       0.00000000 </v>
    <v>       0.00000000       0.25000000       0.25000000 </v>
    <v>       0.12500000       0.00000000       0.25000000 </v>
    <v>       0.12500000       0.25000000       0.00000000 </v>
    <v>       0.06250000       0.12500000       0.12500000 </v>
    <v>       0.06250000       0.37500000       0.37500000 </v>
    <v>       0.18750000       0.12500000       0.37500000 </v>
    <v>       0.18750000       0.37500000       0.12500000 </v>
    <v>       0.00000000       0.00000000       0.50000000 </v>
    <v>       0.00000000       0.25000000       0.75000000 </v>
    <v>       0.12500000       0.00000000       0.75000000 </v>
    <v>       0.12500000       0.25000000       0.50000000 </v>
    <v>       0.06250000       0.12500000       0.62500000 </v>
    <v>       0.06250000       0.37500000       0.87500000 </v>
    <v>       0.18750000       0.12500000       0.87500000 </v>
    <v>       0.18750000       0.37500000       0.62500000 </v>
    <v>       0.00000000       0.50000000       0.00000000 </v>
    <v>       0.00000000       0.75000000       0.25000000 </v>
    <v>       0.12500000       0.50000000       0.25000000 </v>
    <v>       0.12500000       0.75000000       0.00000000 </v>
    <v>       0.06250000       0.62500000       0.12500000 </v>
    <v>       0.06250000       0.87500000       0.37500000 </v>
    <v>       0.18750000       0.62500000       0.37500000 </v>
    <v>       0.18750000       0.87500000       0.12500000 </v>
    <v>       0.00000000       0.50000000       0.50000000 </v>
    <v>       0.00000000       0.75000000       0.75000000 </v>
    <v>       0.12500000       0.50000000       0.75000000 </v>
    <v>       0.12500000       0.75000000       0.50000000 </v>
    <v>       0.06250000       0.62500000       0.62500000 </v>
    <v>       0.06250000       0.87500000       0.87500000 </v>
    <v>       0.18750000       0.62500000       0.87500000 </v>
    <v>       0.18750000       0.87500000       0.62500000 </v>
    <v>       0.25000000       0.00000000       0.00000000 </v>
    <v>       0.25000000       0.25000000       0.25000000 </v>
    <v>       0.37500000       0.00000000       0.25000000 </v>
    <v>       0.37500000       0.25000000       0.00000000 </v>
    <v>       0.31250000       0.12500000       0.12500000 </v>
    <v>       0.31250000       0.37500000       0.37500000 </v>
    <v>       0.43750000       0.12500000       0.37500000 </v>
    <v>       0.43750000       0.37500000       0.12500000 </v>
    <v>       0.25000000       0.00000000       0.50000000 </v>
    <v>       0.25000000       0.25000000       0.75000000 </v>
    <v>       0.37500000       0.00000000       0.75000000 </v>
    <v>       0.37500000       0.25000000       0.50000000 </v>
    <v>       0.31250000       0.12500000       0.62500000 </v>
    <v>       0.31250000       0.37500000       0.87500000 </v>
    <v>       0.43750000       0.12500000       0.87500000 </v>
    <v>       0.43750000       0.37500000       0.62500000 </v>
    <v>       0.25000000       0.50000000       0.00000000 </v>
    <v>       0.25000000       0.75000000       0.25000000 </v>
    <v>       0.37500000       0.50000000       0.25000000 </v>
    <v>       0.37500000       0.75000000       0.00000000 </v>
    <v>       0.31250000       0.62500000       0.12500000 </v>
    <v>       0.31250000       0.87500000       0.37500000 </v>
    <v>       0.43750000       0.62500000       0.37500000 </v>
    <v>       0.43750000       0.87500000       0.12500000 </v>
    <v>       0.25000000       0.50000000       0.50000000 </v>
    <v>       0.25000000       0.75000000       0.75000000 </v>
    <v>       0.37500000       0.50000000       0.75000000 </v>
    <v>       0.37500000       0.75000000       0.50000000 </v>
    <v>       0.31250000       0.62500000       0.62500000 </v>
    <v>       0.31250000       0.87500000       0.87500000 </v>
    <v>       0.43750000       0.62500000       0.87500000 </v>
    <v>       0.43750000       0.87500000       0.62500000 </v>
    <v>       0.50000000       0.00000000       0.00000000 </v>
    <v>       0.50000000       0.25000000       0.25000000 </v>
    <v>       0.62500000       0.00000000       0.25000000 </v>
    <v>       0.62500000       0.25000000       0.00000000 </v>
    <v>       0.56250000       0.12500000       0.12500000 </v>
    <v>       0.56250000       0.37500000       0.37500000 </v>
    <v>       0.68750000       0.12500000       0.37500000 </v>
    <v>       0.68750000       0.37500000       0.12500000 </v>
    <v>       0.50000000       0.00000000       0.50000000 </v>
    <v>       0.50000000       0.25000000       0.75000000 </v>
    <v>       0.62500000       0.00000000       0.75000000 </v>
    <v>       0.62500000       0.25000000       0.50000000 </v>
    <v>       0.56250000       0.12500000       0.62500000 </v>
    <v>       0.56250000       0.37500000       0.87500000 </v>
    <v>       0.68750000       0.12500000       0.87500000 </v>
    <v>       0.68750000       0.37500000       0.62500000 </v>
    <v>       0.50000000       0.50000000       0.00000000 </v>
    <v>       0.50000000       0.75000000       0.25000000 </v>
    <v>       0.62500000       0.50000000       0.25000000 </v>
    <v>       0.62500000       0.75000000       0.00000000 </v>
    <v>       0.56250000       0.62500000       0.12500000 </v>
    <v>       0.56250000       0.87500000       0.37500000 </v>
    <v>       0.68750000       0.62500000       0.37500000 </v>
    <v>       0.68750000       0.87500000       0.12500000 </v>
    <v>       0.50000000       0.50000000       0.50000000 </v>
    <v>       0.50000000       0.75000000       0.75000000 </v>
    <v>       0.62500000       0.50000000       0.75000000 </v>
    <v>       0.62500000       0.75000000       0.50000000 </v>
    <v>       0.56250000       0.62500000       0.62500000 </v>
    <v>       0.56250000       0.87500000       0.87500000 </v>
    <v>       0.68750000       0.62500000       0.87500000 </v>
    <v>       0.68750000       0.87500000       0.62500000 </v>
    <v>       0.75000000       0.00000000       0.00000000 </v>
    <v>       0.75000000       0.25000000       0.25000000 </v>
    <v>       0.87500000       0.00000000       0.25000000 </v>
    <v>       0.87500000       0.25000000       0.00000000 </v>
    <v>       0.81250000       0.12500000       0.12500000 </v>
    <v>       0.81250000       0.37500000       0.37500000 </v>
    <v>       0.93750000       0.12500000       0.37500000 </v>
    <v>       0.93750000       0.37500000       0.12500000 </v>
    <v>       0.75000000       0.00000000       0.50000000 </v>
    <v>       0.75000000       0.25000000       0.75000000 </v>
    <v>       0.87500000       0.00000000       0.75000000 </v>
    <v>       0.87500000       0.25000000       0.50000000 </v>
    <v>       0.81250000       0.12500000       0.62500000 </v>
    <v>       0.81250000       0.37500000       0.87500000 </v>
    <v>       0.93750000       0.12500000       0.87500000 </v>
    <v>       0.93750000       0.37500000       0.62500000 </v>
    <v>       0.75000000       0.50000000       0.00000000 </v>
    <v>       0.75000000       0.75000000       0.25000000 </v>
    <v>       0.87500000       0.50000000       0.25000000 </v>
    <v>       0.87500000       0.75000000       0.00000000 </v>
    <v>       0.81250000       0.62500000       0.12500000 </v>
    <v>       0.81250000       0.87500000       0.37500000 </v>
    <v>       0.93750000       0.62500000       0.37500000 </v>
    <v>       0.93750000       0.87500000       0.12500000 </v>
    <v>       0.75000000       0.50000000       0.50000000 </v>
    <v>       0.75000000       0.75000000       0.75000000 </v>
    <v>       0.87500000       0.50000000       0.75000000 </v>
    <v>       0.87500000       0.75000000       0.50000000 </v>
    <v>       0.81250000       0.62500000       0.62500000 </v>
    <v>       0.81250000       0.87500000       0.87500000 </v>
    <v>       0.93750000       0.62500000       0.87500000 </v>
    <v>       0.93750000       0.87500000       0.62500000 </v>
   </varray>
  </structure>
  <varray name="forces" >
   <v>       0.00000000      -0.00000000      -0.00000000 </v>
   <v>      -0.00000000      -0.00000000       0.00000000 </v>
   <v>       0.00000000       0.00000000       0.00000000 </v>
   <v>       0.00000000       0.00000000      -0.00000000 </v>
   <v>      -0.00000000       0.00000000      -0.00000000 </v>
   <v>      -0.00000000      -0.00000000      -0.00000000 </v>
   <v>       0.00000000       0.00000000      -0.00000000 </v>
   <v>       0.00000000       0.00000000      -0.00000000 </v>
   <v>      -0.00000000       0.00000000      -0.00000000 </v>
   <v>      -0.00000000      -0.00000000       0.00000000 </v>
   <v>       0.00000000       0.00000000       0.00000000 </v>
   <v>      -0.00000000      -0.00000000      -0.00000000 </v>
   <v>      -0.00000000      -0.00000000      -0.00000000 </v>
   <v>      -0.00000000       0.00000000      -0.00000000 </v>
   <v>       0.00000000       0.00000000       0.00000000 </v>
   <v>       0.00000000      -0.00000000      -0.00000000 </v>
   <v>       0.00000000      -0.00000000      -0.00000000 </v>
   <v>       0.00000000      -0.00000000      -0.00000000 </v>
   <v>       0.00000000       0.00000000       0.00000000 </v>
   <v>       0.00000000       0.00000000      -0.00000000 </v>
   <v>      -0.00000000      -0.00000000      -0.00000000 </v>
   <v>       0.00000000       0.00000000      -0.00000000 </v>
   <v>       0.00000000       0.00000000       0.00000000 </v>
   <v>      -0.00000000       0.00000000      -0.00000000 </v>
   <v>       0.00000000      -0.00000000       0.00000000 </v>
   <v>       0.00000000      -0.00000000      -0.00000000 </v>
   <v>      -0.00000000       0.00000000       0.00000000 </v>
   <v>       0.00000000      -0.00000000       0.00000000 </v>
   <v>      -0.00000000       0.00000000      -0.00000000 </v>
   <v>       0.00000000       0.00000000      -0.00000000 </v>
   <v>       0.00000000       0.00000000       0.00000000 </v>
   <v>      -0.00000000       0.00000000      -0.00000000 </v>
   <v>      -0.00000000      -0.00000000      -0.00000000 </v>
   <v>       0.00000000      -0.00000000       0.00000000 </v>
   <v>      -0.00000000      -0.00000000       0.00000000 </v>
   <v>      -0.00000000      -0.00000000      -0.00000000 </v>
   <v>      -0.00000000       0.00000000       0.00000000 </v>
   <v>       0.00000000       0.00000000       0.00000000 </v>
   <v>       0.00000000      -0.00000000      -0.00000000 </v>
   <v>       0.00000000       0.00000000      -0.00000000 </v>
   <v>      -0.00000000      -0.00000000       0.00000000 </v>
   <v>       0.00000000       0.00000000      -0.00000000 </v>
   <v>      -0.00000000       0.00000000       0.00000000 </v>
   <v>      -0.00000000       0.00000000       0.00000000 </v>
   <v>      -0.00000000      -0.00000000      -0.00000000 </v>
   <v>      -0.00000000       0.00000000      -0.00000000 </v>
   <v>      -0.00000000       0.00000000       0.00000000 </v>
   <v>      -0.00000000       0.00000000      -0.00000000 </v>
   <v>      -0.00000000       0.00000000      -0.00000000 </v>
   <v>      -0.00000000      -0.00000000       0.00000000 </v>
   <v>       0.00000000      -0.00000000       0.00000000 </v>
   <v>      -0.00000000      -0.00000000       0.00000000 </v>
   <v>      -0.00000000      -0.00000000       0.00000000 </v>
   <v>       0.00000000      -0.00000000      -0.00000000 </v>
   <v>       0.00000000       0.00000000       0.00000000 </v>
   <v>      -0.00000000       0.00000000      -0.00000000 </v>
   <v>      -0.00000000      -0.00000000       0.00000000 </v>
   <v>      -0.00000000       0.00000000       0.00000000 </v>
   <v>       0.00000000      -0.00000000      -0.00000000 </v>
   <v>      -0.00000000       0.00000000      -0.00000000 </v>
   <v>       0.00000000       0.00000000      -0.00000000 </v>
   <v>      -0.00000000       0.00000000       0.00000000 </v>
   <v>       0.00000000       0.00000000      -0.00000000 </v>
   <v>      -0.00000000       0.00000000       0.00000000 </v>
   <v>       0.00000000      -0.00000000      -0.00000000 </v>
   <v>      -0.00000000      -0.00000000       0.00000000 </v>
   <v>       0.00000000       0.00000000       0.00000000 </v>
   <v>       0.00000000       0.00000000       0.00000000 </v>
   <v>       0.00000000      -0.00000000       0.00000000 </v>
   <v>      -0.00000000       0.00000000       0.00000000 </v>
   <v>      -0.00000000      -0.00000000      -0.00000000 </v>
   <v>       0.00000000       0.00000000       0.00000000 </v>
   <v>      -0.00000000      -0.00000000       0.00000000 </v>
   <v>      -0.00000000      -0.00000000       0.00000000 </v>
   <v>      -0.00000000       0.00000000       0.00000000 </v>
   <v>      -0.00000000      -0.00000000       0.00000000 </v>
   <v>       0.00000000      -0.00000000      -0.00000000 </v>
   <v>       0.00000000      -0.00000000      -0.00000000 </v>
   <v>      -0.00000000      -0.00000000       0.00000000 </v>
   <v>       0.00000000       0.00000000      -0.00000000 </v>
   <v>       0.00000000       0.00000000      -0.00000000 </v>
   <v>       0.00000000      -0.00000000       0.00000000 </v>
   <v>       0.00000000      -0.00000000       0.00000000 </v>
   <v>       0.00000000      -0.00000000       0.00000000 </v>
   <v>      -0.00000000       0.00000000      -0.00000000 </v>
   <v>       0.00000000       0.00000000      -0.00000000 </v>
   <v>       0.00000000       0.00000000      -0.00000000 </v>
   <v>       0.00000000      -0.00000000      -0.00000000 </v>
   <v>       0.00000000      -0.00000000       0.00000000 </v>
   <v>       0.00000000      -0.00000000      -0.00000000 </v>
   <v>      -0.00000000       0.00000000      -0.00000000 </v>
   <v>       0.00000000      -0.00000000       0.00000000 </v>
   <v>      -0.00000000       0.00000000       0.00000000 </v>
   <v>      -0.00000000       0.00000000       0.00000000 </v>
   <v>      -0.00000000       0.00000000       0.00000000 </v>
   <v>       0.00000000       0.00000000       0.00000000 </v>
   <v>      -0.00000000      -0.00000000       0.00000000 </v>
   <v>      -0.00000000      -0.00000000       0.00000000 </v>
   <v>      -0.00000000      -0.00000000      -0.00000000 </v>
   <v>       0.00000000       0.00000000      -0.00000000 </v>
   <v>      -0.00000000       0.00000000      -0.00000000 </v>
   <v>       0.00000000      -0.00000000       0.00000000 </v>
   <v>      -0.00000000      -0.00000000       0.00000000 </v>
   <v>      -0.00000000       0.00000000      -0.00000000 </v>
   <v>       0.00000000      -0.00000000       0.00000000 </v>
   <v>      -0.00000000       0.00000000       0.00000000 </v>
   <v>      -0.00000000      -0.00000000       0.00000000 </v>
   <v>       0.00000000      -0.00000000       0.00000000 </v>
   <v>       0.00000000       0.00000000       0.00000000 </v>
   <v>      -0.00000000      -0.00000000       0.00000000 </v>
   <v>       0.00000000       0.00000000       0.00000000 </v>
   <v>      -0.00000000      -0.00000000      -0.00000000 </v>
   <v>       0.00000000       0.00000000      -0.00000000 </v>
   <v>      -0.00000000       0.00000000       0.00000000 </v>
   <v>       0.00000000       0.00000000      -0.00000000 </v>
   <v>      -0.00000000      -0.00000000       0.00000000 </v>
   <v>       0.00000000       0.00000000       0.00000000 </v>
   <v>      -0.00000000       0.00000000       0.00000000 </v>
   <v>      -0.00000000      -0.00000000       0.00000000 </v>
   <v>      -0.00000000       0.00000000       0.00000000 </v>
   <v>      -0.00000000      -0.00000000      -0.00000000 </v>
   <v>      -0.00000000      -0.00000000       0.00000000 </v>
   <v>      -0.00000000      -0.00000000      -0.00000000 </v>
   <v>      -0.00000000      -0.00000000      -0.00000000 </v>
   <v>      -0.00000000      -0.00000000       0.00000000 </v>
   <v>       0.00000000       0.00000000      -0.00000000 </v>
   <v>       0.00000000       0.00000000       0.00000000 </v>
   <v>      -0.00000000      -0.00000000      -0.00000000 </v>
  </varray>
  <energy>
   <i name="e_fr_energy">   -801.16836138 </i>
   <i name="e_wo_entrp">   -801.16836138 </i>
   <i name="e_0_energy">     -0.00000000 </i>
  </energy>
  <time name="totalsc">  249.58  249.72</time>
  <eigenvalues>
   <array>
    <dimension dim="1">band</dimension>
    <dimension dim="2">kpoint</dimension>
    <dimension dim="3">spin</dimension>
    <field>eigene</field>
    <field>occ</field>
    <set>
     <set comment="spin 1">
      <set comment="kpoint 1">
       <r>   -7.8195    1.0000 </r>
       <r>   -7.5169    1.0000 </r>
       <r>   -7.5169    1.0000 </r>
       <r>   -6.6188    1.0000 </r>
       <r>   -6.6188    1.0000 </r>
       <r>   -6.6188    1.0000 </r>
       <r>   -6.6188    1.0000 </r>
       <r>   -6.6183    1.0000 </r>
       <r>   -6.6183    1.0000 </r>
       <r>   -6.3434    1.0000 </r>
       <r>   -6.3434    1.0000 </r>
       <r>   -6.3434    1.0000 </r>
       <r>   -6.3434    1.0000 </r>
       <r>   -6.3434    1.0000 </r>
       <r>   -6.3434    1.0000 </r>
       <r>   -6.3434    1.0000 </r>
       <r>   -6.3434    1.0000 </r>
       <r>   -5.5471    1.0000 </r>
       <r>   -5.5471    1.0000 </r>
       <r>   -5.5471    1.0000 </r>
       <r>   -5.5471    1.0000 </r>
       <r>   -5.5471    1.0000 </r>
       <r>   -5.5471    1.0000 </r>
       <r>   -5.5471    1.0000 </r>
       <r>   -5.5471    1.0000 </r>
       <r>   -5.5471    1.0000 </r>
       <r>   -5.5471    1.0000 </r>
       <r>   -5.5471    1.0000 </r>
       <r>   -5.5471    1.0000 </r>
       <r>   -5.4023    1.0000 </r>
       <r>   -5.4023    1.0000 </r>
       <r>   -5.4023    1.0000 </r>
       <r>   -5.4023    1.0000 </r>
       <r>   -5.4023    1.0000 </r>
       <r>   -5.4023    1.0000 </r>
       <r>   -5.4023    1.0000 </r>
       <r>   -5.4023    1.0000 </r>
       <r>   -5.2258    1.0000 </r>
       <r>   -5.2258    1.0000 </r>
       <r>   -5.2258    1.0000 </r>
       <r>   -5.2258    1.0000 </r>
       <r>   -5.1559    1.0000 </r>
       <r>   -5.1559    1.0000 </r>
       <r>   -4.3477    1.0000 </r>
       <r>   -4.3477    1.0000 </r>
       <r>   -4.3477    1.0000 </r>
       <r>   -4.3477    1.0000 </r>
       <r>   -4.3477    1.0000 </r>
       <r>   -4.3477    1.0000 </r>
       <r>   -4.3477    1.0000 </r>
       <r>   -4.3477    1.0000 </r>
       <r>   -3.1990    1.0000 </r>
       <r>   -3.1990    1.0000 </r>
       <r>   -3.1990    1.0000 </r>
       <r>   -3.1990    1.0000 </r>
       <r>   -3.1973    1.0000 </r>
       <r>   -3.1973    1.0000 </r>
       <r>   -3.1108    1.0000 </r>
       <r>   -3.1108    1.0000 </r>
       <r>   -3.1108    1.0000 </r>
       <r>   -3.1108    1.0000 </r>
       <r>   -3.1108    1.0000 </r>
       <r>   -3.1108    1.0000 </r>
       <r>   -3.1108    1.0000 </r>
       <r>   -3.1108    1.0000 </r>
       <r>   -3.0142    1.0000 </r>
       <r>   -3.0142    1.0000 </r>
       <r>   -3.0142    1.0000 </r>
       <r>   -3.0142    1.0000 </r>
       <r>   -3.0142    1.0000 </r>
       <r>   -3.0142    1.0000 </r>
       <r>   -3.0142    1.0000 </r>
       <r>   -3.0142    1.0000 </r>
       <r>   -3.0137    1.0000 </r>
       <r>   -3.0137    1.0000 </r>
       <r>   -3.0137    1.0000 </r>
       <r>   -3.0137    1.0000 </r>
       <r>   -2.2429    1.0000 </r>
       <r>   -2.2429    1.0000 </r>
       <r>   -2.2429    1.0000 </r>
       <r>   -2.2429    1.0000 </r>
       <r>   -1.7974    1.0000 </r>
       <r>   -1.7974    1.0000 </r>
       <r>   -1.7974    1.0000 </r>
       <r>   -1.7974    1.0000 </r>
       <r>   -1.7974    1.0000 </r>
       <r>   -1.7974    1.0000 </r>
       <r>   -1.7974    1.0000 </r>
       <r>   -1.7974    1.0000 </r>
       <r>   -1.5760    1.0000 </r>
       <r>   -1.5760    1.0000 </r>
       <r>   -1.5760    1.0000 </r>
       <r>   -1.5760    1.0000 </r>
       <r>   -1.5760    1.0000 </r>
       <r>   -1.5760    1.0000 </r>
       <r>   -1.5760    1.0000 </r>
       <r>   -1.5760    1.0000 </r>
       <r>   -0.8670    1.0000 </r>
       <r>   -0.8670    1.0000 </r>
       <r>   -0.5739    1.0000 </r>
       <r>   -0.5739    1.0000 </r>
       <r>   -0.5739    1.0000 </r>
       <r>   -0.5739    1.0000 </r>
       <r>   -0.5739    1.0000 </r>
       <r>   -0.5739    1.0000 </r>
       <r>   -0.5739    1.0000 </r>
       <r>   -0.5739    1.0000 </r>
       <r>   -0.5688    1.0000 </r>
       <r>   -0.5688    1.0000 </r>
       <r>   -0.5688    1.0000 </r>
       <r>   -0.5688    1.0000 </r>
       <r>    0.7641    1.0000 </r>
       <r>    0.7641    1.0000 </r>
       <r>    0.7641    1.0000 </r>
       <r>    0.7641    1.0000 </r>
       <r>    0.7641    1.0000 </r>
       <r>    0.7641    1.0000 </r>
       <r>    0.7641    1.0000 </r>
       <r>    0.7641    1.0000 </r>
       <r>    0.8602    1.0000 </r>
       <r>    0.8602    1.0000 </r>
       <r>    0.8602    1.0000 </r>
       <r>    0.8602    1.0000 </r>
       <r>    0.8602    1.0000 </r>
       <r>    0.8602    1.0000 </r>
       <r>    0.8602    1.0000 </r>
       <r>    0.8602    1.0000 </r>
       <r>    1.2742    1.0000 </r>
       <r>    1.2742    1.0000 </r>
       <r>    1.2742    1.0000 </r>
       <r>    1.2742    1.0000 </r>
       <r>    1.2742    1.0000 </r>
       <r>    1.2742    1.0000 </r>
       <r>    1.2742    1.0000 </r>
       <r>    1.2742    1.0000 </r>
       <r>    1.2768    1.0000 </r>
       <r>    1.2768    1.0000 </r>
       <r>    1.2768    1.0000 </r>
       <r>    1.2768    1.0000 </r>
       <r>    1.3964    1.0000 </r>
       <r>    1.3964    1.0000 </r>
       <r>    1.3964    1.0000 </r>
       <r>    1.3964    1.0000 </r>
       <r>    1.3972    1.0000 </r>
       <r>    1.3972    1.0000 </r>
       <r>    1.3972    1.0000 </r>
       <r>    1.3972    1.0000 </r>
       <r>    1.3972    1.0000 </r>
       <r>    1.3972    1.0000 </r>
       <r>    1.3972    1.0000 </r>
       <r>    1.3972    1.0000 </r>
       <r>    1.6337    1.0000 </r>
       <r>    1.6337    1.0000 </r>
       <r>    1.6337    1.0000 </r>
       <r>    1.6337    1.0000 </r>
       <r>    1.6429    1.0000 </r>
       <r>    1.6429    1.0000 </r>
       <r>    1.7504    1.0000 </r>
       <r>    1.7504    1.0000 </r>
       <r>    1.7504    1.0000 </r>
       <r>    1.7504    1.0000 </r>
       <r>    1.7504    1.0000 </r>
       <r>    1.7504    1.0000 </r>
       <r>    1.7504    1.0000 </r>
       <r>    1.7504    1.0000 </r>
       <r>    2.3136    1.0000 </r>
       <r>    2.3136    1.0000 </r>
       <r>    2.3408    1.0000 </r>
       <r>    2.3408    1.0000 </r>
       <r>    2.3408    1.0000 </r>
       <r>    2.3408    1.0000 </r>
       <r>    2.5555    1.0000 </r>
       <r>    2.5555    1.0000 </r>
       <r>    2.5555    1.0000 </r>
       <r>    2.5555    1.0000 </r>
       <r>    2.5555    1.0000 </r>
       <r>    2.5555    1.0000 </r>
       <r>    2.5555    1.0000 </r>
       <r>    2.5555    1.0000 </r>
       <r>    2.5922    1.0000 </r>
       <r>    2.5922    1.0000 </r>
       <r>    2.5922    1.0000 </r>
       <r>    2.5922    1.0000 </r>
       <r>    2.6712    1.0000 </r>
       <r>    2.6712    1.0000 </r>
       <r>    2.6712    1.0000 </r>
       <r>    2.6712    1.0000 </r>
       <r>    2.6712    1.0000 </r>
       <r>    2.6712    1.0000 </r>
       <r>    2.6712    1.0000 </r>
       <r>    2.6712    1.0000 </r>
       <r>    2.8259    1.0000 </r>
       <r>    2.8259    1.0000 </r>
       <r>    2.8259    1.0000 </r>
       <r>    2.8259    1.0000 </r>
       <r>    2.8259    1.0000 </r>
       <r>    2.8259    1.0000 </r>
       <r>    2.8259    1.0000 </r>
       <r>    2.8259    1.0000 </r>
       <r>    3.4025    1.0000 </r>
       <r>    3.4025    1.0000 </r>
       <r>    3.4025    1.0000 </r>
       <r>    3.4025    1.0000 </r>
       <r>    3.4208    1.0000 </r>
       <r>    3.4208    1.0000 </r>
       <r>    3.4208    1.0000 </r>
       <r>    3.4208    1.0000 </r>
       <r>    3.4330    1.0000 </r>
       <r>    3.4330    1.0000 </r>
       <r>    3.4330    1.0000 </r>
       <r>    3.4330    1.0000 </r>
       <r>    3.9370    1.0000 </r>
       <r>    3.9370    1.0000 </r>
       <r>    3.9370    1.0000 </r>
       <r>    3.9370    1.0000 </r>
       <r>    3.9370    1.0000 </r>
       <r>    3.9370    1.0000 </r>
       <r>    3.9370    1.0000 </r>
       <r>    3.9370    1.0000 </r>
       <r>    4.0057    1.0000 </r>
       <r>    4.0057    1.0000 </r>
       <r>    4.0057    1.0000 </r>
       <r>    4.0057    1.0000 </r>
       <r>    4.0289    1.0000 </r>
       <r>    4.0289    1.0000 </r>
       <r>    4.0289    1.0000 </r>
       <r>    4.0289    1.0000 </r>
       <r>    4.0289    1.0000 </r>
       <r>    4.0289    1.0000 </r>
       <r>    4.0289    1.0000 </r>
       <r>    4.0289    1.0000 </r>
       <r>    4.0682    1.0000 </r>
       <r>    4.0682    1.0000 </r>
       <r>    4.0701    1.0000 </r>
       <r>    4.0701    1.0000 </r>
       <r>    4.0701    1.0000 </r>
       <r>    4.0701    1.0000 </r>
       <r>    4.0701    1.0000 </r>
       <r>    4.0701    1.0000 </r>
       <r>    4.0701    1.0000 </r>
       <r>    4.0701    1.0000 </r>
       <r>    4.1386    1.0000 </r>
       <r>    4.1386    1.0000 </r>
       <r>    4.1386    1.0000 </r>
       <r>    4.1386    1.0000 </r>
       <r>    4.1671    1.0000 </r>
       <r>    4.1671    1.0000 </r>
       <r>    4.1671    1.0000 </r>
       <r>    4.1671    1.0000 </r>
       <r>    4.6103    1.0000 </r>
       <r>    4.6103    1.0000 </r>
       <r>    4.6103    1.0000 </r>
       <r>    4.6103    1.0000 </r>
       <r>    5.4634    1.0000 </r>
       <r>    5.4634    1.0000 </r>
       <r>    5.4694    1.0000 </r>
       <r>    6.7082    0.0000 </r>
       <r>    6.7082    0.0000 </r>
       <r>    6.7828    0.0000 </r>
       <r>    6.7828    0.0000 </r>
       <r>    6.7828    0.0000 </r>
       <r>    6.7828    0.0000 </r>
       <r>    6.8040    0.0000 </r>
       <r>    6.8040    0.0000 </r>
       <r>    7.2407    0.0000 </r>
       <r>    7.2407    0.0000 </r>
       <r>    7.2407    0.0000 </r>
       <r>    7.2407    0.0000 </r>
       <r>    7.2698    0.0000 </r>
       <r>    7.2698    0.0000 </r>
       <r>    7.6864    0.0000 </r>
       <r>    7.6864    0.0000 </r>
       <r>    7.7491    0.0000 </r>
       <r>    7.7491    0.0000 </r>
       <r>    7.7491    0.0000 </r>
       <r>    7.7491    0.0000 </r>
       <r>    8.1208    0.0000 </r>
       <r>    8.1208    0.0000 </r>
       <r>    8.1208    0.0000 </r>
       <r>    8.1208    0.0000 </r>
       <r>    8.1208    0.0000 </r>
       <r>    8.1208    0.0000 </r>
       <r>    8.1208    0.0000 </r>
       <r>    8.1208    0.0000 </r>
       <r>    8.2365    0.0000 </r>
       <r>    8.2365    0.0000 </r>
       <r>    8.6166    0.0000 </r>
       <r>    8.6166    0.0000 </r>
       <r>    8.6166    0.0000 </r>
       <r>    8.6166    0.0000 </r>
       <r>    8.6166    0.0000 </r>
       <r>    8.6166    0.0000 </r>
       <r>    8.6166    0.0000 </r>
       <r>    8.6166    0.0000 </r>
       <r>    8.6471    0.0000 </r>
       <r>    8.6471    0.0000 </r>
       <r>    8.6471    0.0000 </r>
       <r>    8.6471    0.0000 </r>
       <r>    8.6471    0.0000 </r>
       <r>    8.6471    0.0000 </r>
       <r>    8.6471    0.0000 </r>
       <r>    8.6471    0.0000 </r>
       <r>    8.6806    0.0000 </r>
       <r>    8.6806    0.0000 </r>
       <r>    8.6806    0.0000 </r>
       <r>    8.6806    0.0000 </r>
       <r>    8.6806    0.0000 </r>
       <r>    8.6806    0.0000 </r>
       <r>    8.6806    0.0000 </r>
       <r>    8.6806    0.0000 </r>
       <r>    8.7011    0.0000 </r>
       <r>    8.7011    0.0000 </r>
       <r>    8.7011    0.0000 </r>
       <r>    8.7011    0.0000 </r>
       <r>    8.8147    0.0000 </r>
       <r>    8.8147    0.0000 </r>
       <r>    8.8521    0.0000 </r>
       <r>    9.0882    0.0000 </r>
       <r>    9.0882    0.0000 </r>
       <r>    9.0882    0.0000 </r>
       <r>    9.0882    0.0000 </r>
       <r>    9.0882    0.0000 </r>
       <r>    9.0882    0.0000 </r>
       <r>    9.0882    0.0000 </r>
       <r>    9.0882    0.0000 </r>
       <r>    9.3830    0.0000 </r>
       <r>    9.3853    0.0000 </r>
       <r>    9.3897    0.0000 </r>
      </set>
     </set>
    </set>
   </array>
  </eigenvalues>
  <separator name="orbital magnetization" >
   <v name="MAGDIPOLOUT">      0.00000000      0.00000000      0.00000000</v>
  </separator>
  <dos>
   <i name="efermi">      5.71088314 </i>
   <total>
    <array>
     <dimension dim="1">gridpoints</dimension>
     <dimension dim="2">spin</dimension>
     <field>energy</field>
     <field>total</field>
     <field>integrated</field>
     <set>
      <set comment="spin 1">
       <r>    -8.6800     0.0000     0.0000 </r>
       <r>    -8.6169     0.0000     0.0000 </r>
       <r>    -8.5538     0.0000     0.0000 </r>
       <r>    -8.4907     0.0000     0.0000 </r>
       <r>    -8.4276     0.0000     0.0000 </r>
       <r>    -8.3645     0.0000     0.0000 </r>
       <r>    -8.3014     0.0000     0.0000 </r>
       <r>    -8.2383     0.0000     0.0000 </r>
       <r>    -8.1752     0.0000     0.0000 </r>
       <r>    -8.1121     0.0000     0.0000 </r>
       <r>    -8.0490     0.0000     0.0000 </r>
       <r>    -7.9859     0.0000     0.0000 </r>
       <r>    -7.9228     0.0553     0.0035 </r>
       <r>    -7.8597     4.0026     0.2561 </r>
       <r>    -7.7966    19.4547     1.4837 </r>
       <r>    -7.7335     7.9459     1.9851 </r>
       <r>    -7.6704     0.2369     2.0000 </r>
       <r>    -7.6073     0.3349     2.0211 </r>
       <r>    -7.5442    13.6172     2.8804 </r>
       <r>    -7.4811    39.5778     5.3778 </r>
       <r>    -7.4180     9.6976     5.9897 </r>
       <r>    -7.3549     0.1630     6.0000 </r>
       <r>    -7.2918     0.0001     6.0000 </r>
       <r>    -7.2287     0.0000     6.0000 </r>
       <r>    -7.1656     0.0000     6.0000 </r>
       <r>    -7.1025     0.0000     6.0000 </r>
       <r>    -7.0394     0.0000     6.0000 </r>
       <r>    -6.9763     0.0000     6.0000 </r>
       <r>    -6.9132     0.0000     6.0000 </r>
       <r>    -6.8501     0.0000     6.0000 </r>
       <r>    -6.7870     0.0002     6.0000 </r>
       <r>    -6.7239     0.2773     6.0175 </r>
       <r>    -6.6608    21.9206     7.4007 </r>
       <r>    -6.5977   115.3868    14.6817 </r>
       <r>    -6.5346    50.9319    17.8955 </r>
       <r>    -6.4715     1.6897    18.0022 </r>
       <r>    -6.4084     8.3647    18.5300 </r>
       <r>    -6.3453   113.1254    25.6683 </r>
       <r>    -6.2822   121.4985    33.3349 </r>
       <r>    -6.2191    10.4852    33.9965 </r>
       <r>    -6.1560     0.0552    34.0000 </r>
       <r>    -6.0929     0.0000    34.0000 </r>
       <r>    -6.0298     0.0000    34.0000 </r>
       <r>    -5.9667     0.0000    34.0000 </r>
       <r>    -5.9036     0.0000    34.0000 </r>
       <r>    -5.8405     0.0000    34.0000 </r>
       <r>    -5.7774     0.0000    34.0000 </r>
       <r>    -5.7143     0.0004    34.0000 </r>
       <r>    -5.6512     0.6156    34.0389 </r>
       <r>    -5.5881    46.2303    36.9560 </r>
       <r>    -5.5250   232.4558    51.6241 </r>
       <r>    -5.4619   109.6708    58.5444 </r>
       <r>    -5.3988   128.2131    66.6348 </r>
       <r>    -5.3357   109.2968    73.5315 </r>
       <r>    -5.2726    19.2104    74.7437 </r>
       <r>    -5.2095    78.2731    79.6828 </r>
       <r>    -5.1464    73.5712    84.3251 </r>
       <r>    -5.0833    25.2706    85.9197 </r>
       <r>    -5.0202     1.2681    85.9998 </r>
       <r>    -4.9571     0.0039    86.0000 </r>
       <r>    -4.8940     0.0000    86.0000 </r>
       <r>    -4.8309     0.0000    86.0000 </r>
       <r>    -4.7678     0.0000    86.0000 </r>
       <r>    -4.7047     0.0000    86.0000 </r>
       <r>    -4.6416     0.0000    86.0000 </r>
       <r>    -4.5785     0.0000    86.0000 </r>
       <r>    -4.5154     0.0003    86.0000 </r>
       <r>    -4.4523     0.3911    86.0247 </r>
       <r>    -4.3892    30.0776    87.9226 </r>
       <r>    -4.3261   154.4452    97.6682 </r>
       <r>    -4.2630    66.5437   101.8672 </r>
       <r>    -4.1999     2.1015   101.9998 </r>
       <r>    -4.1368     0.0037   102.0000 </r>
       <r>    -4.0737     0.0000   102.0000 </r>
       <r>    -4.0106     0.0000   102.0000 </r>
       <r>    -3.9475     0.0000   102.0000 </r>
       <r>    -3.8844     0.0000   102.0000 </r>
       <r>    -3.8213     0.0000   102.0000 </r>
       <r>    -3.7582     0.0000   102.0000 </r>
       <r>    -3.6951     0.0000   102.0000 </r>
       <r>    -3.6320     0.0000   102.0000 </r>
       <r>    -3.5689     0.0000   102.0000 </r>
       <r>    -3.5058     0.0000   102.0000 </r>
       <r>    -3.4427     0.0000   102.0000 </r>
       <r>    -3.3796     0.0000   102.0000 </r>
       <r>    -3.3165     0.0807   102.0051 </r>
       <r>    -3.2534    11.3976   102.7243 </r>
       <r>    -3.1903   104.1905   109.2988 </r>
       <r>    -3.1272   152.2273   118.9044 </r>
       <r>    -3.0641   182.1188   130.3962 </r>
       <r>    -3.0010   238.5275   145.4475 </r>
       <r>    -2.9379   129.6061   153.6257 </r>
       <r>    -2.8747     5.9162   153.9990 </r>
       <r>    -2.8116     0.0155   154.0000 </r>
       <r>    -2.7485     0.0000   154.0000 </r>
       <r>    -2.6854     0.0000   154.0000 </r>
       <r>    -2.6223     0.0000   154.0000 </r>
       <r>    -2.5592     0.0000   154.0000 </r>
       <r>    -2.4961     0.0000   154.0000 </r>
       <r>    -2.4330     0.0000   154.0000 </r>
       <r>    -2.3699     0.0207   154.0013 </r>
       <r>    -2.3068     4.4554   154.2824 </r>
       <r>    -2.2437    57.7409   157.9259 </r>
       <r>    -2.1806    59.6107   161.6874 </r>
       <r>    -2.1175     4.9289   161.9984 </r>
       <r>    -2.0544     0.0248   162.0000 </r>
       <r>    -1.9913     0.0000   162.0000 </r>
       <r>    -1.9282     0.0273   162.0017 </r>
       <r>    -1.8651     6.9945   162.4431 </r>
       <r>    -1.8020   106.5368   169.1656 </r>
       <r>    -1.7389   127.5557   177.2145 </r>
       <r>    -1.6758    12.9758   178.0332 </r>
       <r>    -1.6127    37.3337   180.3890 </r>
       <r>    -1.5496   157.8846   190.3517 </r>
       <r>    -1.4865    56.3724   193.9088 </r>
       <r>    -1.4234     1.4435   193.9999 </r>
       <r>    -1.3603     0.0020   194.0000 </r>
       <r>    -1.2972     0.0000   194.0000 </r>
       <r>    -1.2341     0.0000   194.0000 </r>
       <r>    -1.1710     0.0000   194.0000 </r>
       <r>    -1.1079     0.0000   194.0000 </r>
       <r>    -1.0448     0.0000   194.0000 </r>
       <r>    -0.9817     0.0373   194.0024 </r>
       <r>    -0.9186     4.5416   194.2889 </r>
       <r>    -0.8555    35.2026   196.5102 </r>
       <r>    -0.7924    22.5048   197.9303 </r>
       <r>    -0.7293     1.1031   197.9999 </r>
       <r>    -0.6662     1.5148   198.0955 </r>
       <r>    -0.6031    71.2617   202.5922 </r>
       <r>    -0.5400   238.3342   217.6312 </r>
       <r>    -0.4769    67.8686   221.9138 </r>
       <r>    -0.4138     1.3653   221.9999 </r>
       <r>    -0.3507     0.0015   222.0000 </r>
       <r>    -0.2876     0.0000   222.0000 </r>
       <r>    -0.2245     0.0000   222.0000 </r>
       <r>    -0.1614     0.0000   222.0000 </r>
       <r>    -0.0983     0.0000   222.0000 </r>
       <r>    -0.0352     0.0000   222.0000 </r>
       <r>     0.0279     0.0000   222.0000 </r>
       <r>     0.0910     0.0000   222.0000 </r>
       <r>     0.1541     0.0000   222.0000 </r>
       <r>     0.2172     0.0000   222.0000 </r>
       <r>     0.2803     0.0000   222.0000 </r>
       <r>     0.3434     0.0000   222.0000 </r>
       <r>     0.4065     0.0000   222.0000 </r>
       <r>     0.4696     0.0000   222.0000 </r>
       <r>     0.5327     0.0000   222.0000 </r>
       <r>     0.5958     0.0002   222.0000 </r>
       <r>     0.6589     0.3714   222.0234 </r>
       <r>     0.7220    29.3074   223.8728 </r>
       <r>     0.7851   158.1498   233.8521 </r>
       <r>     0.8482   156.5621   243.7313 </r>
       <r>     0.9113   143.8960   252.8112 </r>
       <r>     0.9744    18.6820   253.9901 </r>
       <r>     1.0375     0.1572   254.0000 </r>
       <r>     1.1006     0.0002   254.0000 </r>
       <r>     1.1637     0.3130   254.0198 </r>
       <r>     1.2268    32.5187   256.0717 </r>
       <r>     1.2899   219.7047   269.9352 </r>
       <r>     1.3530   163.2901   280.2389 </r>
       <r>     1.4161   233.1100   294.9483 </r>
       <r>     1.4792   107.9567   301.7605 </r>
       <r>     1.5423     4.5433   302.0472 </r>
       <r>     1.6054    35.1977   304.2682 </r>
       <r>     1.6685   121.3019   311.9224 </r>
       <r>     1.7316   107.4838   318.7047 </r>
       <r>     1.7947   152.2900   328.3143 </r>
       <r>     1.8578    26.4111   329.9808 </r>
       <r>     1.9209     0.3034   330.0000 </r>
       <r>     1.9840     0.0002   330.0000 </r>
       <r>     2.0471     0.0000   330.0000 </r>
       <r>     2.1102     0.0000   330.0000 </r>
       <r>     2.1733     0.0024   330.0002 </r>
       <r>     2.2364     1.1132   330.0704 </r>
       <r>     2.2995    36.0943   332.3480 </r>
       <r>     2.3626   113.5837   339.5152 </r>
       <r>     2.4257    38.3227   341.9334 </r>
       <r>     2.4888     8.7768   342.4872 </r>
       <r>     2.5519   124.9924   350.3743 </r>
       <r>     2.6150   217.2757   364.0845 </r>
       <r>     2.6781   175.8713   375.1821 </r>
       <r>     2.7412   104.1183   381.7521 </r>
       <r>     2.8043    72.5092   386.3274 </r>
       <r>     2.8674   154.4852   396.0755 </r>
       <r>     2.9305    30.1060   397.9753 </r>
       <r>     2.9936     0.3919   398.0000 </r>
       <r>     3.0567     0.0003   398.0000 </r>
       <r>     3.1198     0.0000   398.0000 </r>
       <r>     3.1829     0.0000   398.0000 </r>
       <r>     3.2460     0.0007   398.0000 </r>
       <r>     3.3091     0.6507   398.0411 </r>
       <r>     3.3722    40.2956   400.5838 </r>
       <r>     3.4353   213.6855   414.0675 </r>
       <r>     3.4984   119.4327   421.6038 </r>
       <r>     3.5615     6.2573   421.9986 </r>
       <r>     3.6246     0.0224   422.0000 </r>
       <r>     3.6877     0.0000   422.0000 </r>
       <r>     3.7508     0.0000   422.0000 </r>
       <r>     3.8139     0.0634   422.0040 </r>
       <r>     3.8770    11.3541   422.7205 </r>
       <r>     3.9401   129.9340   430.9194 </r>
       <r>     4.0032   233.0913   445.6276 </r>
       <r>     4.0663   366.3741   468.7460 </r>
       <r>     4.1294   263.5060   485.3734 </r>
       <r>     4.1925   161.9838   495.5947 </r>
       <r>     4.2556    37.2776   497.9470 </r>
       <r>     4.3187     0.8394   497.9999 </r>
       <r>     4.3818     0.0012   498.0000 </r>
       <r>     4.4449     0.0002   498.0000 </r>
       <r>     4.5080     0.2429   498.0153 </r>
       <r>     4.5711    16.7712   499.0736 </r>
       <r>     4.6342    78.2135   504.0089 </r>
       <r>     4.6973    30.6799   505.9449 </r>
       <r>     4.7604     0.8726   505.9999 </r>
       <r>     4.8235     0.0014   506.0000 </r>
       <r>     4.8866     0.0000   506.0000 </r>
       <r>     4.9497     0.0000   506.0000 </r>
       <r>     5.0128     0.0000   506.0000 </r>
       <r>     5.0759     0.0000   506.0000 </r>
       <r>     5.1390     0.0000   506.0000 </r>
       <r>     5.2021     0.0000   506.0000 </r>
       <r>     5.2652     0.0000   506.0000 </r>
       <r>     5.3283     0.0053   506.0003 </r>
       <r>     5.3914     1.7547   506.1111 </r>
       <r>     5.4545    34.3439   508.2782 </r>
       <r>     5.5176    52.2854   511.5774 </r>
       <r>     5.5807     6.6422   511.9966 </r>
       <r>     5.6438     0.0546   512.0000 </r>
       <r>     5.7069     0.0000   512.0000 </r>
       <r>     5.7700     0.0000   512.0000 </r>
       <r>     5.8331     0.0000   512.0000 </r>
       <r>     5.8962     0.0000   512.0000 </r>
       <r>     5.9593     0.0000   512.0000 </r>
       <r>     6.0224     0.0000   512.0000 </r>
       <r>     6.0855     0.0000   512.0000 </r>
       <r>     6.1486     0.0000   512.0000 </r>
       <r>     6.2117     0.0000   512.0000 </r>
       <r>     6.2748     0.0000   512.0000 </r>
       <r>     6.3379     0.0000   512.0000 </r>
       <r>     6.4010     0.0000   512.0000 </r>
       <r>     6.4641     0.0000   512.0000 </r>
       <r>     6.5272     0.0000   512.0000 </r>
       <r>     6.5903     0.0271   512.0017 </r>
       <r>     6.6534     3.8307   512.2434 </r>
       <r>     6.7165    38.0189   514.6424 </r>
       <r>     6.7797    94.6321   520.6138 </r>
       <r>     6.8428   102.7069   527.0947 </r>
       <r>     6.9059    14.1902   527.9901 </r>
       <r>     6.9690     0.1571   528.0000 </r>
       <r>     7.0321     0.0001   528.0000 </r>
       <r>     7.0952     0.0025   528.0002 </r>
       <r>     7.1583     1.3010   528.0823 </r>
       <r>     7.2214    41.1905   530.6814 </r>
       <r>     7.2845   112.5236   537.7817 </r>
       <r>     7.3476    34.1143   539.9343 </r>
       <r>     7.4107     1.0382   539.9999 </r>
       <r>     7.4738     0.0022   540.0000 </r>
       <r>     7.5369     0.0007   540.0000 </r>
       <r>     7.6000     0.4611   540.0291 </r>
       <r>     7.6631    16.6375   541.0790 </r>
       <r>     7.7262    70.7221   545.5416 </r>
       <r>     7.7893    85.9742   550.9666 </r>
       <r>     7.8524    16.1543   551.9860 </r>
       <r>     7.9155     0.2223   552.0000 </r>
       <r>     7.9786     0.0075   552.0005 </r>
       <r>     8.0417     3.1947   552.2020 </r>
       <r>     8.1048    79.3085   557.2065 </r>
       <r>     8.1679   149.5262   566.6417 </r>
       <r>     8.2310    49.0450   569.7364 </r>
       <r>     8.2941    32.5916   571.7930 </r>
       <r>     8.3572     3.2602   571.9987 </r>
       <r>     8.4203     0.0204   572.0000 </r>
       <r>     8.4834     0.0213   572.0013 </r>
       <r>     8.5465     6.5636   572.4155 </r>
       <r>     8.6096   143.1332   581.4473 </r>
       <r>     8.6727   414.6810   607.6140 </r>
       <r>     8.7358   286.5469   625.6952 </r>
       <r>     8.7989    58.9113   629.4126 </r>
       <r>     8.8620    54.5907   632.8573 </r>
       <r>     8.9251    17.4329   633.9573 </r>
       <r>     8.9882     1.2658   634.0372 </r>
       <r>     9.0513    36.9691   636.3700 </r>
       <r>     9.1144   157.7922   646.3268 </r>
       <r>     9.1775    56.7454   649.9074 </r>
       <r>     9.2406     1.4667   650.0000 </r>
       <r>     9.3037     0.9629   650.0608 </r>
       <r>     9.3668    26.9758   651.7629 </r>
       <r>     9.4299    56.8732   655.3517 </r>
       <r>     9.4930    10.1526   655.9923 </r>
       <r>     9.5561     0.1217   656.0000 </r>
       <r>     9.6192     0.0001   656.0000 </r>
       <r>     9.6823     0.0000   656.0000 </r>
       <r>     9.7454     0.0000   656.0000 </r>
       <r>     9.8085     0.0000   656.0000 </r>
       <r>     9.8716     0.0000   656.0000 </r>
       <r>     9.9347     0.0000   656.0000 </r>
       <r>     9.9978     0.0000   656.0000 </r>
       <r>    10.0609     0.0000   656.0000 </r>
       <r>    10.1240     0.0000   656.0000 </r>
       <r>    10.1871     0.0000   656.0000 </r>
       <r>    10.2502     0.0000   656.0000 </r>
      </set>
     </set>
    </array>
   </total>
  </dos>
 </calculation>
 <structure name="finalpos" >
  <crystal>
   <varray name="basis" >
    <v>      21.72400000       0.00000000       0.00000000 </v>
    <v>       0.00000000      10.86200000       0.00000000 </v>
    <v>       0.00000000       0.00000000      10.86200000 </v>
   </varray>
   <i name="volume">   2563.06364786 </i>
   <varray name="rec_basis" >
    <v>       0.04603204       0.00000000       0.00000000 </v>
    <v>       0.00000000       0.09206408       0.00000000 </v>
    <v>       0.00000000       0.00000000       0.09206408 </v>
   </varray>
  </crystal>
  <varray name="positions" >
   <v>       0.00000000       0.00000000       0.00000000 </v>
   <v>       0.00000000       0.25000000       0.25000000 </v>
   <v>       0.12500000       0.00000000       0.25000000 </v>
   <v>       0.12500000       0.25000000       0.00000000 </v>
   <v>       0.06250000       0.12500000       0.12500000 </v>
   <v>       0.06250000       0.37500000       0.37500000 </v>
   <v>       0.18750000       0.12500000       0.37500000 </v>
   <v>       0.18750000       0.37500000       0.12500000 </v>
   <v>       0.00000000       0.00000000       0.50000000 </v>
   <v>       0.00000000       0.25000000       0.75000000 </v>
   <v>       0.12500000       0.00000000       0.75000000 </v>
   <v>       0.12500000       0.25000000       0.50000000 </v>
   <v>       0.06250000       0.12500000       0.62500000 </v>
   <v>       0.06250000       0.37500000       0.87500000 </v>
   <v>       0.18750000       0.12500000       0.87500000 </v>
   <v>       0.18750000       0.37500000       0.62500000 </v>
   <v>       0.00000000       0.50000000       0.00000000 </v>
   <v>       0.00000000       0.75000000       0.25000000 </v>
   <v>       0.12500000       0.50000000       0.25000000 </v>
   <v>       0.12500000       0.75000000       0.00000000 </v>
   <v>       0.06250000       0.62500000       0.12500000 </v>
   <v>       0.06250000       0.87500000       0.37500000 </v>
   <v>       0.18750000       0.62500000       0.37500000 </v>
   <v>       0.18750000       0.87500000       0.12500000 </v>
   <v>       0.00000000       0.50000000       0.50000000 </v>
   <v>       0.00000000       0.75000000       0.75000000 </v>
   <v>       0.12500000       0.50000000       0.75000000 </v>
   <v>       0.12500000       0.75000000       0.50000000 </v>
   <v>       0.06250000       0.62500000       0.62500000 </v>
   <v>       0.06250000       0.87500000       0.87500000 </v>
   <v>       0.18750000       0.62500000       0.87500000 </v>
   <v>       0.18750000       0.87500000       0.62500000 </v>
   <v>       0.25000000       0.00000000       0.00000000 </v>
   <v>       0.25000000       0.25000000       0.25000000 </v>
   <v>       0.37500000       0.00000000       0.25000000 </v>
   <v>       0.37500000       0.25000000       0.00000000 </v>
   <v>       0.31250000       0.12500000       0.12500000 </v>
   <v>       0.31250000       0.37500000       0.37500000 </v>
   <v>       0.43750000       0.12500000       0.37500000 </v>
   <v>       0.43750000       0.37500000       0.12500000 </v>
   <v>       0.25000000       0.00000000       0.50000000 </v>
   <v>       0.25000000       0.25000000       0.75000000 </v>
   <v>       0.37500000       0.00000000       0.75000000 </v>
   <v>       0.37500000       0.25000000       0.50000000 </v>
   <v>       0.31250000       0.12500000       0.62500000 </v>
   <v>       0.31250000       0.37500000       0.87500000 </v>
   <v>       0.43750000       0.12500000       0.87500000 </v>
   <v>       0.43750000       0.37500000       0.62500000 </v>
   <v>       0.25000000       0.50000000       0.00000000 </v>
   <v>       0.25000000       0.75000000       0.25000000 </v>
   <v>       0.37500000       0.50000000       0.25000000 </v>
   <v>       0.37500000       0.75000000       0.00000000 </v>
   <v>       0.31250000       0.62500000       0.12500000 </v>
   <v>       0.31250000       0.87500000       0.37500000 </v>
   <v>       0.43750000       0.62500000       0.37500000 </v>
   <v>       0.43750000       0.87500000       0.12500000 </v>
   <v>       0.25000000       0.50000000       0.50000000 </v>
   <v>       0.25000000       0.75000000       0.75000000 </v>
   <v>       0.37500000       0.50000000       0.75000000 </v>
   <v>       0.37500000       0.75000000       0.50000000 </v>
   <v>       0.31250000       0.62500000       0.62500000 </v>
   <v>       0.31250000       0.87500000       0.87500000 </v>
   <v>       0.43750000       0.62500000       0.87500000 </v>
   <v>       0.43750000       0.87500000       0.62500000 </v>
   <v>       0.50000000       0.00000000       0.00000000 </v>
   <v>       0.50000000       0.25000000       0.25000000 </v>
   <v>       0.62500000       0.00000000       0.25000000 </v>
   <v>       0.62500000       0.25000000       0.00000000 </v>
   <v>       0.56250000       0.12500000       0.12500000 </v>
   <v>       0.56250000       0.37500000       0.37500000 </v>
   <v>       0.68750000       0.12500000       0.37500000 </v>
   <v>       0.68750000       0.37500000       0.12500000 </v>
   <v>       0.50000000       0.00000000       0.50000000 </v>
   <v>       0.50000000       0.25000000       0.75000000 </v>
   <v>       0.62500000       0.00000000       0.75000000 </v>
   <v>       0.62500000       0.25000000       0.50000000 </v>
   <v>       0.56250000       0.12500000       0.62500000 </v>
   <v>       0.56250000       0.37500000       0.87500000 </v>
   <v>       0.68750000       0.12500000       0.87500000 </v>
   <v>       0.68750000       0.37500000       0.62500000 </v>
   <v>       0.50000000       0.50000000       0.00000000 </v>
   <v>       0.50000000       0.75000000       0.25000000 </v>
   <v>       0.62500000       0.50000000       0.25000000 </v>
   <v>       0.62500000       0.75000000       0.00000000 </v>
   <v>       0.56250000       0.62500000       0.12500000 </v>
   <v>       0.56250000       0.87500000       0.37500000 </v>
   <v>       0.68750000       0.62500000       0.37500000 </v>
   <v>       0.68750000       0.87500000       0.12500000 </v>
   <v>       0.50000000       0.50000000       0.50000000 </v>
   <v>       0.50000000       0.75000000       0.75000000 </v>
   <v>       0.62500000       0.50000000       0.75000000 </v>
   <v>       0.62500000       0.75000000       0.50000000 </v>
   <v>       0.56250000       0.62500000       0.62500000 </v>
   <v>       0.56250000       0.87500000       0.87500000 </v>
   <v>       0.68750000       0.62500000       0.87500000 </v>
   <v>       0.68750000       0.87500000       0.62500000 </v>
   <v>       0.75000000       0.00000000       0.00000000 </v>
   <v>       0.75000000       0.25000000       0.25000000 </v>
   <v>       0.87500000       0.00000000       0.25000000 </v>
   <v>       0.87500000       0.25000000       0.00000000 </v>
   <v>       0.81250000       0.12500000       0.12500000 </v>
   <v>       0.81250000       0.37500000       0.37500000 </v>
   <v>       0.93750000       0.12500000       0.37500000 </v>
   <v>       0.93750000       0.37500000       0.12500000 </v>
   <v>       0.75000000       0.00000000       0.50000000 </v>
   <v>       0.75000000       0.25000000       0.75000000 </v>
   <v>       0.87500000       0.00000000       0.75000000 </v>
   <v>       0.87500000       0.25000000       0.50000000 </v>
   <v>       0.81250000       0.12500000       0.62500000 </v>
   <v>       0.81250000       0.37500000       0.87500000 </v>
   <v>       0.93750000       0.12500000       0.87500000 </v>
   <v>       0.93750000       0.37500000       0.62500000 </v>
   <v>       0.75000000       0.50000000       0.00000000 </v>
   <v>       0.75000000       0.75000000       0.25000000 </v>
   <v>       0.87500000       0.50000000       0.25000000 </v>
   <v>       0.87500000       0.75000000       0.00000000 </v>
   <v>       0.81250000       0.62500000       0.12500000 </v>
   <v>       0.81250000       0.87500000       0.37500000 </v>
   <v>       0.93750000       0.62500000       0.37500000 </v>
   <v>       0.93750000       0.87500000       0.12500000 </v>
   <v>       0.75000000       0.50000000       0.50000000 </v>
   <v>       0.75000000       0.75000000       0.75000000 </v>
   <v>       0.87500000       0.50000000       0.75000000 </v>
   <v>       0.87500000       0.75000000       0.50000000 </v>
   <v>       0.81250000       0.62500000       0.62500000 </v>
   <v>       0.81250000       0.87500000       0.87500000 </v>
   <v>       0.93750000       0.62500000       0.87500000 </v>
   <v>       0.93750000       0.87500000       0.62500000 </v>
  </varray>
 </structure>
</modeling>
