CsI-HSE06-k333-vasp                     
   1.00000000000000     
     4.5670000000000002    0.0000000000000000    0.0000000000000000
     0.0000000000000000    4.5670000000000002    0.0000000000000000
     0.0000000000000000    0.0000000000000000    4.5670000000000002
   Cs   I 
     1     1
Direct
  0.0000000000000000  0.0000000000000000  0.0000000000000000
  0.5000000000000000  0.5000000000000000  0.5000000000000000
 
  0.00000000E+00  0.00000000E+00  0.00000000E+00
  0.00000000E+00  0.00000000E+00  0.00000000E+00
