    2    2    1    1
  0.4762808E+02  0.4567000E-09  0.4567000E-09  0.4567000E-09  0.5000000E-15
  1.000000000000000E-004
  CAR 
 CsI-HSE06-k333-vasp  (HSE06)            
     16      4     16
 
  0.0000000E+00  0.0000000E+00  0.0000000E+00  0.3703704E-01
    1      -21.650174   1.000000
    2      -11.355171   1.000000
    3       -7.358599   1.000000
    4       -7.358599   1.000000
    5       -7.358599   1.000000
    6        0.105121   1.000000
    7        0.105122   1.000000
    8        0.105122   1.000000
    9        5.097130   0.000000
   10        5.369856   0.000000
   11        5.369856   0.000000
   12        9.187845   0.000000
   13        9.187846   0.000000
   14        9.187846   0.000000
   15       11.634798   0.000000
   16       11.634798   0.000000
 
  0.3333333E+00  0.0000000E+00  0.0000000E+00  0.2222222E+00
    1      -21.629486   1.000000
    2      -11.363018   1.000000
    3       -7.457680   1.000000
    4       -7.305898   1.000000
    5       -7.305898   1.000000
    6       -1.125907   1.000000
    7       -0.009108   1.000000
    8       -0.009108   1.000000
    9        6.040381   0.000000
   10        6.864709   0.000000
   11        7.392970   0.000000
   12        8.848192   0.000000
   13        9.130975   0.000000
   14        9.130980   0.000000
   15        9.671058   0.000000
   16       11.127447   0.000000
 
  0.3333333E+00  0.3333333E+00  0.0000000E+00  0.4444444E+00
    1      -21.610317   1.000000
    2      -11.254801   1.000000
    3       -7.650194   1.000000
    4       -7.525865   1.000000
    5       -7.270051   1.000000
    6       -0.862200   1.000000
    7       -0.569571   1.000000
    8        0.098410   1.000000
    9        6.018888   0.000000
   10        6.582773   0.000000
   11        7.721915   0.000000
   12        8.396341   0.000000
   13        8.588050   0.000000
   14        9.222107   0.000000
   15       10.473755   0.000000
   16       11.803107   0.000000
 
  0.3333333E+00  0.3333333E+00  0.3333333E+00  0.2962963E+00
    1      -21.592294   1.000000
    2      -11.147979   1.000000
    3       -7.564879   1.000000
    4       -7.564879   1.000000
    5       -7.556486   1.000000
    6       -0.850776   1.000000
    7       -0.850776   1.000000
    8       -0.663248   1.000000
    9        6.966424   0.000000
   10        7.659760   0.000000
   11        7.659760   0.000000
   12        8.488876   0.000000
   13        8.969656   0.000000
   14        8.969656   0.000000
   15       11.925243   0.000000
   16       11.925243   0.000000
