       N       E                     dE             d eps       ncg     rms          ort
SDA:   1    -0.624146002936E+01   -0.62415E+01   -0.50251E-01    64   0.126E+00 0.000E+00
DMP:   2    -0.628183551078E+01   -0.40375E-01   -0.33979E-01    64   0.559E-01 0.761E-01
DMP:   3    -0.630749550410E+01   -0.25660E-01   -0.13593E-01    64   0.178E-01 0.423E-01
DMP:   4    -0.631677659237E+01   -0.92811E-02   -0.35320E-02    64   0.415E-02 0.122E-01
DMP:   5    -0.631899060736E+01   -0.22140E-02   -0.92825E-03    64   0.147E-02 0.222E-02
DMP:   6    -0.631965922775E+01   -0.66862E-03   -0.45327E-03    64   0.794E-03 0.888E-03
DMP:   7    -0.631999929369E+01   -0.34007E-03   -0.24320E-03    64   0.393E-03 0.563E-03
DMP:   8    -0.632018633049E+01   -0.18704E-03   -0.11711E-03    64   0.164E-03 0.338E-03
DMP:   9    -0.632027240655E+01   -0.86076E-04   -0.44701E-04    64   0.543E-04 0.150E-03
DMP:  10    -0.632030378333E+01   -0.31377E-04   -0.15846E-04    64   0.191E-04 0.537E-04
DMP:  11    -0.632031444429E+01   -0.10661E-04   -0.56850E-05    64   0.712E-05 0.186E-04
DMP:  12    -0.632031835210E+01   -0.39078E-05   -0.23051E-05    64   0.311E-05 0.695E-05
DMP:  13    -0.632032017362E+01   -0.18215E-05   -0.10172E-05    64   0.136E-05 0.310E-05
DMP:  14    -0.632032112116E+01   -0.94753E-06   -0.42962E-06    64   0.544E-06 0.139E-05
   1 F= -.63203211E+01 E0= -.63203211E+01  d E =-.224567E-21
