<?xml version="1.0" encoding="ISO-8859-1"?>
<modeling>
 <generator>
  <i name="program" type="string">vasp </i>
  <i name="version" type="string">5.4.4.18Apr17-6-g9f103f2a35  </i>
  <i name="subversion" type="string">(build Mar 10 2026 18:13:51) complex            parallel </i>
  <i name="platform" type="string">LinuxIFC </i>
  <i name="date" type="string">2026 06 25 </i>
  <i name="time" type="string">14:54:24 </i>
 </generator>
 <incar>
  <i type="string" name="SYSTEM"> CsI-HSE06-k333-vasp  (HSE06)</i>
  <i type="int" name="ISTART">     1</i>
  <i type="string" name="PREC">accurate</i>
  <i type="string" name="ALGO"> Damped</i>
  <i type="int" name="ICHARG">     0</i>
  <i type="int" name="NELM">   120</i>
  <i name="EDIFF">      0.00000100</i>
  <i name="ENCUT">    290.00000000</i>
  <i type="logical" name="LREAL"> F  </i>
  <i name="TIME">      0.40000000</i>
  <i type="int" name="ISMEAR">     0</i>
  <i name="SIGMA">      0.05000000</i>
  <i type="logical" name="LWAVE"> F  </i>
  <i type="logical" name="LCHARG"> F  </i>
  <v type="int" name="KPOINT_BSE">    -1     0     0     0</v>
  <i type="int" name="NELM">   120</i>
  <i type="logical" name="LHFCALC"> T  </i>
  <i name="HFSCREEN">      0.20000000</i>
  <i name="AEXX">      0.25000000</i>
  <i type="string" name="PRECFOCK">fast</i>
 </incar>
 <structure name="primitive_cell" >
  <crystal>
   <varray name="basis" >
    <v>       4.56700000       0.00000000       0.00000000 </v>
    <v>       0.00000000       4.56700000       0.00000000 </v>
    <v>       0.00000000       0.00000000       4.56700000 </v>
   </varray>
   <i name="volume">     95.25615226 </i>
   <varray name="rec_basis" >
    <v>       0.21896212       0.00000000       0.00000000 </v>
    <v>       0.00000000       0.21896212       0.00000000 </v>
    <v>       0.00000000       0.00000000       0.21896212 </v>
   </varray>
  </crystal>
  <varray name="positions" >
   <v>       0.00000000       0.00000000       0.00000000 </v>
   <v>      -0.50000000      -0.50000000      -0.50000000 </v>
  </varray>
 </structure>
 <varray name="primitive_index" >
  <v type="int" >        1 </v>
  <v type="int" >        2 </v>
 </varray>
 <kpoints>
  <generation param="Gamma">
   <v type="int" name="divisions">       3        3        3 </v>
   <v name="usershift">      0.00000000       0.00000000       0.00000000 </v>
   <v name="genvec1">      0.33333333       0.00000000       0.00000000 </v>
   <v name="genvec2">      0.00000000       0.33333333       0.00000000 </v>
   <v name="genvec3">      0.00000000       0.00000000       0.33333333 </v>
   <v name="shift">      0.00000000       0.00000000       0.00000000 </v>
  </generation>
  <varray name="kpointlist" >
   <v>       0.00000000       0.00000000       0.00000000 </v>
   <v>       0.33333333       0.00000000       0.00000000 </v>
   <v>       0.33333333       0.33333333       0.00000000 </v>
   <v>       0.33333333       0.33333333       0.33333333 </v>
  </varray>
  <varray name="weights" >
   <v>       0.03703704 </v>
   <v>       0.22222222 </v>
   <v>       0.44444444 </v>
   <v>       0.29629630 </v>
  </varray>
 </kpoints>
 <parameters>
  <separator name="general" >
   <i type="string" name="SYSTEM">CsI-HSE06-k333-vasp  (HSE06)</i>
   <i type="logical" name="LCOMPAT"> F  </i>
  </separator>
  <separator name="electronic" >
   <i type="string" name="PREC">accura</i>
   <i name="ENMAX">    290.00000000</i>
   <i name="ENAUG">    407.93300000</i>
   <i name="EDIFF">      0.00000100</i>
   <i type="int" name="IALGO">    53</i>
   <i type="int" name="IWAVPR">    10</i>
   <i type="int" name="NBANDS">    16</i>
   <i name="NELECT">     16.00000000</i>
   <i type="int" name="TURBO">     0</i>
   <i type="int" name="IRESTART">     0</i>
   <i type="int" name="NREBOOT">     0</i>
   <i type="int" name="NMIN">     0</i>
   <i name="EREF">      0.00000000</i>
   <separator name="electronic smearing" >
    <i type="int" name="ISMEAR">     0</i>
    <i name="SIGMA">      0.05000000</i>
    <i name="KSPACING">      0.50000000</i>
    <i type="logical" name="KGAMMA"> T  </i>
   </separator>
   <separator name="electronic projectors" >
    <i type="logical" name="LREAL"> F  </i>
    <v name="ROPT">      0.00000000      0.00000000</v>
    <i type="int" name="LMAXPAW">  -100</i>
    <i type="int" name="LMAXMIX">     2</i>
    <i type="logical" name="NLSPLINE"> F  </i>
   </separator>
   <separator name="electronic startup" >
    <i type="int" name="ISTART">     1</i>
    <i type="int" name="ICHARG">     0</i>
    <i type="int" name="INIWAV">     1</i>
   </separator>
   <separator name="electronic spin" >
    <i type="int" name="ISPIN">     1</i>
    <i type="logical" name="LNONCOLLINEAR"> F  </i>
    <v name="MAGMOM">      1.00000000      1.00000000</v>
    <i name="NUPDOWN">     -1.00000000</i>
    <i type="logical" name="LSORBIT"> F  </i>
    <v name="SAXIS">      0.00000000      0.00000000      1.00000000</v>
    <i type="logical" name="LSPIRAL"> F  </i>
    <v name="QSPIRAL">      0.00000000      0.00000000      0.00000000</v>
    <i type="logical" name="LZEROZ"> F  </i>
   </separator>
   <separator name="electronic exchange-correlation" >
    <i type="logical" name="LASPH"> F  </i>
    <i type="logical" name="LMETAGGA"> F  </i>
   </separator>
   <separator name="electronic convergence" >
    <i type="int" name="NELM">   120</i>
    <i type="int" name="NELMDL">     0</i>
    <i type="int" name="NELMIN">     2</i>
    <i name="ENINI">    290.00000000</i>
    <separator name="electronic convergence detail" >
     <i type="logical" name="LDIAG"> T  </i>
     <i type="logical" name="LSUBROT"> F  </i>
     <i name="WEIMIN">      0.00000000</i>
     <i name="EBREAK">      0.00000002</i>
     <i name="DEPER">      0.30000000</i>
     <i type="int" name="NRMM">     4</i>
     <i name="TIME">      0.40000000</i>
    </separator>
   </separator>
   <separator name="electronic mixer" >
    <i name="AMIX">      0.40000000</i>
    <i name="BMIX">      1.00000000</i>
    <i name="AMIN">      0.10000000</i>
    <i name="AMIX_MAG">      1.60000000</i>
    <i name="BMIX_MAG">      1.00000000</i>
    <separator name="electronic mixer details" >
     <i type="int" name="IMIX">     4</i>
     <i type="logical" name="MIXFIRST"> F  </i>
     <i type="int" name="MAXMIX">   -45</i>
     <i name="WC">    100.00000000</i>
     <i type="int" name="INIMIX">     1</i>
     <i type="int" name="MIXPRE">     1</i>
     <i type="int" name="MREMOVE">     5</i>
    </separator>
   </separator>
   <separator name="electronic dipolcorrection" >
    <i type="logical" name="LDIPOL"> F  </i>
    <i type="logical" name="LMONO"> F  </i>
    <i type="int" name="IDIPOL">     0</i>
    <i name="EPSILON">      1.00000000</i>
    <v name="DIPOL">   -100.00000000   -100.00000000   -100.00000000</v>
    <i name="EFIELD">      0.00000000</i>
   </separator>
  </separator>
  <separator name="grids" >
   <i type="int" name="NGX">    28</i>
   <i type="int" name="NGY">    28</i>
   <i type="int" name="NGZ">    28</i>
   <i type="int" name="NGXF">    56</i>
   <i type="int" name="NGYF">    56</i>
   <i type="int" name="NGZF">    56</i>
   <i type="logical" name="ADDGRID"> F  </i>
  </separator>
  <separator name="ionic" >
   <i type="int" name="NSW">     0</i>
   <i type="int" name="IBRION">    -1</i>
   <i type="int" name="MDALGO">     0</i>
   <i type="int" name="ISIF">     0</i>
   <i name="PSTRESS">      0.00000000</i>
   <i name="EDIFFG">      0.00001000</i>
   <i type="int" name="NFREE">     0</i>
   <i name="POTIM">      0.50000000</i>
   <i name="SMASS">     -3.00000000</i>
   <i name="SCALEE">      1.00000000</i>
  </separator>
  <separator name="ionic md" >
   <i name="TEBEG">      0.00010000</i>
   <i name="TEEND">      0.00010000</i>
   <i type="int" name="NBLOCK">     1</i>
   <i type="int" name="KBLOCK">     1</i>
   <i type="int" name="NPACO">   256</i>
   <i name="APACO">     16.00000000</i>
  </separator>
  <separator name="symmetry" >
   <i type="int" name="ISYM">     3</i>
   <i name="SYMPREC">      0.00001000</i>
  </separator>
  <separator name="dos" >
   <i type="int" name="LORBIT">     0</i>
   <v name="RWIGS">     -1.00000000     -1.00000000</v>
   <i type="int" name="NEDOS">   301</i>
   <i name="EMIN">     10.00000000</i>
   <i name="EMAX">    -10.00000000</i>
   <i name="EFERMI">      0.00000000</i>
  </separator>
  <separator name="writing" >
   <i type="int" name="NWRITE">     2</i>
   <i type="logical" name="LWAVE"> F  </i>
   <i type="logical" name="LDOWNSAMPLE"> F  </i>
   <i type="logical" name="LCHARG"> F  </i>
   <i type="logical" name="LPARD"> F  </i>
   <i type="logical" name="LVTOT"> F  </i>
   <i type="logical" name="LVHAR"> F  </i>
   <i type="logical" name="LELF"> F  </i>
   <i type="logical" name="LOPTICS"> F  </i>
   <v name="STM">      0.00000000      0.00000000      0.00000000      0.00000000      0.00000000      0.00000000      0.00000000</v>
  </separator>
  <separator name="performance" >
   <i type="int" name="NPAR">     8</i>
   <i type="int" name="NSIM">     4</i>
   <i type="int" name="NBLK">    -1</i>
   <i type="logical" name="LPLANE"> T  </i>
   <i type="logical" name="LSCALAPACK"> T  </i>
   <i type="logical" name="LSCAAWARE"> F  </i>
   <i type="logical" name="LSCALU"> F  </i>
   <i type="logical" name="LASYNC"> F  </i>
   <i type="logical" name="LORBITALREAL"> F  </i>
  </separator>
  <separator name="miscellaneous" >
   <i type="int" name="IDIOT">     3</i>
   <i type="int" name="ISPECIAL">     0</i>
   <i type="logical" name="LMUSIC"> F  </i>
   <v name="POMASS">    132.90000000    126.90400000</v>
   <v name="DARWINR">      0.00000000      0.00000000</v>
   <v name="DARWINV">      1.00000000      1.00000000</v>
   <i type="logical" name="LCORR"> T  </i>
  </separator>
  <i type="logical" name="GGA_COMPAT"> T  </i>
  <i type="logical" name="LBERRY"> F  </i>
  <i type="int" name="ICORELEVEL">     0</i>
  <i type="logical" name="LDAU"> F  </i>
  <i type="int" name="I_CONSTRAINED_M">     0</i>
  <separator name="electronic exchange-correlation" >
   <i type="string" name="GGA">--</i>
   <i type="int" name="VOSKOWN">     0</i>
   <i type="logical" name="LHFCALC"> T  </i>
   <i type="string" name="PRECFOCK">fast</i>
   <i type="logical" name="LSYMGRAD"> F  </i>
   <i type="logical" name="LHFONE"> F  </i>
   <i type="logical" name="LRHFCALC"> F  </i>
   <i type="logical" name="LTHOMAS"> F  </i>
   <i type="logical" name="LMODELHF"> F  </i>
   <i name="ENCUT4O">     -1.00000000</i>
   <i type="int" name="EXXOEP">     0</i>
   <i type="int" name="FOURORBIT">     0</i>
   <i name="AEXX">      0.25000000</i>
   <i name="HFALPHA">     -1.00000000</i>
   <i name="MCALPHA">      0.00000000</i>
   <i name="ALDAX">      0.75000000</i>
   <i name="AGGAX">      0.75000000</i>
   <i name="ALDAC">      1.00000000</i>
   <i name="AGGAC">      1.00000000</i>
   <i type="int" name="NKREDX">     1</i>
   <i type="int" name="NKREDY">     1</i>
   <i type="int" name="NKREDZ">     1</i>
   <i type="logical" name="SHIFTRED"> F  </i>
   <i type="logical" name="ODDONLY"> F  </i>
   <i type="logical" name="EVENONLY"> F  </i>
   <i type="int" name="LMAXFOCK">     4</i>
   <i type="int" name="NMAXFOCKAE">     1</i>
   <i type="logical" name="LFOCKAEDFT"> F  </i>
   <i name="HFSCREEN">      0.20000000</i>
   <i name="HFSCREENC">      0.20000000</i>
   <i type="int" name="NBANDSGWLOW">     1</i>
  </separator>
  <separator name="vdW DFT" >
   <i type="logical" name="LUSE_VDW"> F  </i>
   <i name="Zab_VDW">     -0.84910000</i>
   <i name="PARAM1">      0.12340000</i>
   <i name="PARAM2">      1.00000000</i>
   <i name="PARAM3">      0.00000000</i>
  </separator>
  <separator name="model GW" >
   <i type="int" name="MODEL_GW">     0</i>
   <i name="MODEL_EPS0">     28.57684568</i>
   <i name="MODEL_ALPHA">      1.00000000</i>
  </separator>
  <separator name="linear response parameters" >
   <i type="logical" name="LEPSILON"> F  </i>
   <i type="logical" name="LRPA"> F  </i>
   <i type="logical" name="LNABLA"> F  </i>
   <i type="logical" name="LVEL"> F  </i>
   <i type="int" name="KINTER">     0</i>
   <i name="CSHIFT">      0.10000000</i>
   <i name="OMEGAMAX">     -1.00000000</i>
   <i name="DEG_THRESHOLD">      0.00200000</i>
   <i name="RTIME">     -0.10000000</i>
   <i name="WPLASMAI">      0.00000000</i>
   <v name="DFIELD">      0.00000000      0.00000000      0.00000000</v>
   <v name="WPLASMA">      0.00000000      0.00000000      0.00000000      0.00000000      0.00000000      0.00000000      0.00000000      0.00000000      0.00000000</v>
  </separator>
  <separator name="orbital magnetization" >
   <i type="logical" name="NUCIND"> F  </i>
   <v name="MAGPOS">      0.00000000      0.00000000      0.00000000</v>
   <i type="logical" name="LNICSALL"> T  </i>
   <i type="logical" name="ORBITALMAG"> F  </i>
   <i type="logical" name="LMAGBLOCH"> F  </i>
   <i type="logical" name="LCHIMAG"> F  </i>
   <i type="logical" name="LGAUGE"> T  </i>
   <i type="int" name="MAGATOM">     0</i>
   <v name="MAGDIPOL">      0.00000000      0.00000000      0.00000000</v>
   <v name="AVECCONST">      0.00000000      0.00000000      0.00000000</v>
  </separator>
  <separator name="response functions" >
   <i type="logical" name="LADDER"> F  </i>
   <i type="logical" name="LRPAFORCE"> F  </i>
   <i type="logical" name="LFXC"> F  </i>
   <i type="logical" name="LHARTREE"> T  </i>
   <i type="int" name="IBSE">     0</i>
   <v type="int" name="KPOINT">    -1     0     0     0</v>
   <i type="logical" name="LTCTE"> F  </i>
   <i type="logical" name="LTETE"> F  </i>
   <i type="logical" name="LTRIPLET"> F  </i>
   <i type="logical" name="LFXCEPS"> F  </i>
   <i type="logical" name="LFXHEG"> F  </i>
   <i type="int" name="NATURALO">     2</i>
   <i type="logical" name="L2ORDER"> F  </i>
   <i type="logical" name="LMP2LT"> F  </i>
   <i type="logical" name="LUSEW"> F  </i>
   <i name="ENCUTGW">     -2.00000000</i>
   <i name="ENCUTGWSOFT">     -2.00000000</i>
   <i name="ENCUTLF">     -1.00000000</i>
   <i type="int" name="LMAXMP2">    -1</i>
   <i name="SCISSOR">      0.00000000</i>
   <i type="int" name="NOMEGA">     0</i>
   <i type="int" name="NOMEGAR">     0</i>
   <i type="int" name="NBANDSGW">    -1</i>
   <i type="int" name="NBANDSO">    -1</i>
   <i type="int" name="NBANDSV">    -1</i>
   <i type="int" name="NELM">   120</i>
   <i type="int" name="NELMHF">     1</i>
   <i type="int" name="DIM">     3</i>
   <i type="int" name="ANTIRES">     0</i>
   <i name="OMEGAMAX">    -30.00000000</i>
   <i name="OMEGAMIN">    -30.00000000</i>
   <i name="OMEGATL">   -200.00000000</i>
   <i type="int" name="OMEGAGRID">   140</i>
   <i name="CSHIFT">     -0.10000000</i>
   <i type="logical" name="SELFENERGY"> F  </i>
   <i type="logical" name="LSPECTRAL"> F  </i>
   <i type="logical" name="LSPECTRALGW"> F  </i>
   <i type="logical" name="LSINGLES"> F  </i>
   <i type="logical" name="LFERMIGW"> F  </i>
   <i type="logical" name="ODDONLYGW"> F  </i>
   <i type="logical" name="EVENONLYGW"> F  </i>
   <i type="int" name="NKREDLFX">     1</i>
   <i type="int" name="NKREDLFY">     1</i>
   <i type="int" name="NKREDLFZ">     1</i>
   <i type="int" name="MAXMEM">  2800</i>
   <i type="int" name="TELESCOPE">     0</i>
   <i type="int" name="TAUPAR">     1</i>
   <i type="int" name="OMEGAPAR">    -1</i>
   <i name="LAMBDA">      1.00000000</i>
  </separator>
  <separator name="External order field" >
   <i name="OFIELD_KAPPA">      0.00000000</i>
   <v name="OFIELD_K">      0.00000000      0.00000000      0.00000000</v>
   <i name="OFIELD_Q6_NEAR">      0.00000000</i>
   <i name="OFIELD_Q6_FAR">      0.00000000</i>
   <i name="OFIELD_A">      0.00000000</i>
  </separator>
 </parameters>
 <atominfo>
  <atoms>       2 </atoms>
  <types>       2 </types>
  <array name="atoms" >
   <dimension dim="1">ion</dimension>
   <field type="string">element</field>
   <field type="int">atomtype</field>
   <set>
    <rc><c>Cs</c><c>   1</c></rc>
    <rc><c>I </c><c>   2</c></rc>
   </set>
  </array>
  <array name="atomtypes" >
   <dimension dim="1">type</dimension>
   <field type="int">atomspertype</field>
   <field type="string">element</field>
   <field>mass</field>
   <field>valence</field>
   <field type="string">pseudopotential</field>
   <set>
    <rc><c>   1</c><c>Cs</c><c>    132.90000000</c><c>      9.00000000</c><c>  PAW_PBE Cs_sv 08Apr2002               </c></rc>
    <rc><c>   1</c><c>I </c><c>    126.90400000</c><c>      7.00000000</c><c>  PAW_PBE I 08Apr2002                   </c></rc>
   </set>
  </array>
 </atominfo>
 <structure name="initialpos" >
  <crystal>
   <varray name="basis" >
    <v>       4.56700000       0.00000000       0.00000000 </v>
    <v>       0.00000000       4.56700000       0.00000000 </v>
    <v>       0.00000000       0.00000000       4.56700000 </v>
   </varray>
   <i name="volume">     95.25615226 </i>
   <varray name="rec_basis" >
    <v>       0.21896212       0.00000000       0.00000000 </v>
    <v>       0.00000000       0.21896212       0.00000000 </v>
    <v>       0.00000000       0.00000000       0.21896212 </v>
   </varray>
  </crystal>
  <varray name="positions" >
   <v>       0.00000000       0.00000000       0.00000000 </v>
   <v>       0.50000000       0.50000000       0.50000000 </v>
  </varray>
 </structure>
 <calculation>
  <scstep>
   <time name="total">    6.65    7.14</time>
   <energy>
    <i name="alphaZ">     36.74310680 </i>
    <i name="ewald">   -740.78755578 </i>
    <i name="hartreedc">   -109.13176082 </i>
    <i name="XCdc">     -3.20562106 </i>
    <i name="pawpsdc">    784.06523049 </i>
    <i name="pawaedc">   -757.68566993 </i>
    <i name="eentropy">     -0.00000000 </i>
    <i name="bandstr">   -113.49481213 </i>
    <i name="atom">    869.57236141 </i>
    <i name="e_fr_energy">     -6.24146003 </i>
    <i name="e_wo_entrp">     -6.24146003 </i>
    <i name="e_0_energy">     -6.24146003 </i>
   </energy>
  </scstep>
  <scstep>
   <time name="total">   11.28   11.69</time>
   <energy>
    <i name="e_fr_energy">     -6.28183551 </i>
    <i name="e_wo_entrp">     -6.28183551 </i>
    <i name="e_0_energy">     -6.28183551 </i>
   </energy>
  </scstep>
  <scstep>
   <time name="total">    7.85    8.49</time>
   <energy>
    <i name="e_fr_energy">     -6.30749550 </i>
    <i name="e_wo_entrp">     -6.30749550 </i>
    <i name="e_0_energy">     -6.30749550 </i>
   </energy>
  </scstep>
  <scstep>
   <time name="total">   13.01   13.48</time>
   <energy>
    <i name="e_fr_energy">     -6.31677659 </i>
    <i name="e_wo_entrp">     -6.31677659 </i>
    <i name="e_0_energy">     -6.31677659 </i>
   </energy>
  </scstep>
  <scstep>
   <time name="total">   15.07   15.50</time>
   <energy>
    <i name="e_fr_energy">     -6.31899061 </i>
    <i name="e_wo_entrp">     -6.31899061 </i>
    <i name="e_0_energy">     -6.31899061 </i>
   </energy>
  </scstep>
  <scstep>
   <time name="total">   14.01   14.38</time>
   <energy>
    <i name="e_fr_energy">     -6.31965923 </i>
    <i name="e_wo_entrp">     -6.31965923 </i>
    <i name="e_0_energy">     -6.31965923 </i>
   </energy>
  </scstep>
  <scstep>
   <time name="total">    9.98   10.79</time>
   <energy>
    <i name="e_fr_energy">     -6.31999929 </i>
    <i name="e_wo_entrp">     -6.31999929 </i>
    <i name="e_0_energy">     -6.31999929 </i>
   </energy>
  </scstep>
  <scstep>
   <time name="total">    8.14    8.32</time>
   <energy>
    <i name="e_fr_energy">     -6.32018633 </i>
    <i name="e_wo_entrp">     -6.32018633 </i>
    <i name="e_0_energy">     -6.32018633 </i>
   </energy>
  </scstep>
  <scstep>
   <time name="total">    6.38    6.53</time>
   <energy>
    <i name="e_fr_energy">     -6.32027241 </i>
    <i name="e_wo_entrp">     -6.32027241 </i>
    <i name="e_0_energy">     -6.32027241 </i>
   </energy>
  </scstep>
  <scstep>
   <time name="total">    3.51    3.60</time>
   <energy>
    <i name="e_fr_energy">     -6.32030378 </i>
    <i name="e_wo_entrp">     -6.32030378 </i>
    <i name="e_0_energy">     -6.32030378 </i>
   </energy>
  </scstep>
  <scstep>
   <time name="total">    1.03    1.03</time>
   <energy>
    <i name="e_fr_energy">     -6.32031444 </i>
    <i name="e_wo_entrp">     -6.32031444 </i>
    <i name="e_0_energy">     -6.32031444 </i>
   </energy>
  </scstep>
  <scstep>
   <time name="total">    0.66    0.73</time>
   <energy>
    <i name="e_fr_energy">     -6.32031835 </i>
    <i name="e_wo_entrp">     -6.32031835 </i>
    <i name="e_0_energy">     -6.32031835 </i>
   </energy>
  </scstep>
  <scstep>
   <time name="total">    2.45    2.74</time>
   <energy>
    <i name="e_fr_energy">     -6.32032017 </i>
    <i name="e_wo_entrp">     -6.32032017 </i>
    <i name="e_0_energy">     -6.32032017 </i>
   </energy>
  </scstep>
  <scstep>
   <time name="total">    2.92    3.00</time>
   <energy>
    <i name="alphaZ">     36.74310680 </i>
    <i name="ewald">   -740.78755578 </i>
    <i name="hartreedc">   -109.33069029 </i>
    <i name="XCdc">     -2.95737402 </i>
    <i name="pawpsdc">   1207.90224149 </i>
    <i name="pawaedc">  -1181.55387220 </i>
    <i name="eentropy">     -0.00000000 </i>
    <i name="bandstr">   -113.63458550 </i>
    <i name="atom">    869.57236141 </i>
    <i name="e_fr_energy">     -6.32032112 </i>
    <i name="e_wo_entrp">     -6.32032112 </i>
    <i name="e_0_energy">     -6.32032112 </i>
   </energy>
  </scstep>
  <structure>
   <crystal>
    <varray name="basis" >
     <v>       4.56700000       0.00000000       0.00000000 </v>
     <v>       0.00000000       4.56700000       0.00000000 </v>
     <v>       0.00000000       0.00000000       4.56700000 </v>
    </varray>
    <i name="volume">     95.25615226 </i>
    <varray name="rec_basis" >
     <v>       0.21896212       0.00000000       0.00000000 </v>
     <v>       0.00000000       0.21896212       0.00000000 </v>
     <v>       0.00000000       0.00000000       0.21896212 </v>
    </varray>
   </crystal>
   <varray name="positions" >
    <v>       0.00000000       0.00000000       0.00000000 </v>
    <v>       0.50000000       0.50000000       0.50000000 </v>
   </varray>
  </structure>
  <varray name="forces" >
   <v>       0.00000000       0.00000000       0.00000000 </v>
   <v>       0.00000000       0.00000000       0.00000000 </v>
  </varray>
  <energy>
   <i name="e_fr_energy">     -6.32032112 </i>
   <i name="e_wo_entrp">     -6.32032112 </i>
   <i name="e_0_energy">     -0.00000000 </i>
  </energy>
  <time name="totalsc">  104.96  109.74</time>
  <eigenvalues>
   <array>
    <dimension dim="1">band</dimension>
    <dimension dim="2">kpoint</dimension>
    <dimension dim="3">spin</dimension>
    <field>eigene</field>
    <field>occ</field>
    <set>
     <set comment="spin 1">
      <set comment="kpoint 1">
       <r>  -21.6502    1.0000 </r>
       <r>  -11.3552    1.0000 </r>
       <r>   -7.3586    1.0000 </r>
       <r>   -7.3586    1.0000 </r>
       <r>   -7.3586    1.0000 </r>
       <r>    0.1051    1.0000 </r>
       <r>    0.1051    1.0000 </r>
       <r>    0.1051    1.0000 </r>
       <r>    5.0971    0.0000 </r>
       <r>    5.3699    0.0000 </r>
       <r>    5.3699    0.0000 </r>
       <r>    9.1878    0.0000 </r>
       <r>    9.1878    0.0000 </r>
       <r>    9.1878    0.0000 </r>
       <r>   11.6348    0.0000 </r>
       <r>   11.6348    0.0000 </r>
      </set>
      <set comment="kpoint 2">
       <r>  -21.6295    1.0000 </r>
       <r>  -11.3630    1.0000 </r>
       <r>   -7.4577    1.0000 </r>
       <r>   -7.3059    1.0000 </r>
       <r>   -7.3059    1.0000 </r>
       <r>   -1.1259    1.0000 </r>
       <r>   -0.0091    1.0000 </r>
       <r>   -0.0091    1.0000 </r>
       <r>    6.0404    0.0000 </r>
       <r>    6.8647    0.0000 </r>
       <r>    7.3930    0.0000 </r>
       <r>    8.8482    0.0000 </r>
       <r>    9.1310    0.0000 </r>
       <r>    9.1310    0.0000 </r>
       <r>    9.6711    0.0000 </r>
       <r>   11.1274    0.0000 </r>
      </set>
      <set comment="kpoint 3">
       <r>  -21.6103    1.0000 </r>
       <r>  -11.2548    1.0000 </r>
       <r>   -7.6502    1.0000 </r>
       <r>   -7.5259    1.0000 </r>
       <r>   -7.2701    1.0000 </r>
       <r>   -0.8622    1.0000 </r>
       <r>   -0.5696    1.0000 </r>
       <r>    0.0984    1.0000 </r>
       <r>    6.0189    0.0000 </r>
       <r>    6.5828    0.0000 </r>
       <r>    7.7219    0.0000 </r>
       <r>    8.3963    0.0000 </r>
       <r>    8.5881    0.0000 </r>
       <r>    9.2221    0.0000 </r>
       <r>   10.4738    0.0000 </r>
       <r>   11.8031    0.0000 </r>
      </set>
      <set comment="kpoint 4">
       <r>  -21.5923    1.0000 </r>
       <r>  -11.1480    1.0000 </r>
       <r>   -7.5649    1.0000 </r>
       <r>   -7.5649    1.0000 </r>
       <r>   -7.5565    1.0000 </r>
       <r>   -0.8508    1.0000 </r>
       <r>   -0.8508    1.0000 </r>
       <r>   -0.6632    1.0000 </r>
       <r>    6.9664    0.0000 </r>
       <r>    7.6598    0.0000 </r>
       <r>    7.6598    0.0000 </r>
       <r>    8.4889    0.0000 </r>
       <r>    8.9697    0.0000 </r>
       <r>    8.9697    0.0000 </r>
       <r>   11.9252    0.0000 </r>
       <r>   11.9252    0.0000 </r>
      </set>
     </set>
    </set>
   </array>
  </eigenvalues>
  <separator name="orbital magnetization" >
   <v name="MAGDIPOLOUT">      0.00000000      0.00000000      0.00000000</v>
  </separator>
  <dos>
   <i name="efermi">      0.43895313 </i>
   <total>
    <array>
     <dimension dim="1">gridpoints</dimension>
     <dimension dim="2">spin</dimension>
     <field>energy</field>
     <field>total</field>
     <field>integrated</field>
     <set>
      <set comment="spin 1">
       <r>   -23.3289     0.0000     0.0000 </r>
       <r>   -23.2058     0.0000     0.0000 </r>
       <r>   -23.0827     0.0000     0.0000 </r>
       <r>   -22.9596     0.0000     0.0000 </r>
       <r>   -22.8365     0.0000     0.0000 </r>
       <r>   -22.7134     0.0000     0.0000 </r>
       <r>   -22.5903     0.0000     0.0000 </r>
       <r>   -22.4672     0.0000     0.0000 </r>
       <r>   -22.3441     0.0000     0.0000 </r>
       <r>   -22.2210     0.0000     0.0000 </r>
       <r>   -22.0978     0.0000     0.0000 </r>
       <r>   -21.9747     0.0000     0.0000 </r>
       <r>   -21.8516     0.0000     0.0000 </r>
       <r>   -21.7285     0.0205     0.0025 </r>
       <r>   -21.6054     8.9540     1.1049 </r>
       <r>   -21.4823     7.2655     1.9993 </r>
       <r>   -21.3592     0.0056     2.0000 </r>
       <r>   -21.2361     0.0000     2.0000 </r>
       <r>   -21.1130     0.0000     2.0000 </r>
       <r>   -20.9899     0.0000     2.0000 </r>
       <r>   -20.8667     0.0000     2.0000 </r>
       <r>   -20.7436     0.0000     2.0000 </r>
       <r>   -20.6205     0.0000     2.0000 </r>
       <r>   -20.4974     0.0000     2.0000 </r>
       <r>   -20.3743     0.0000     2.0000 </r>
       <r>   -20.2512     0.0000     2.0000 </r>
       <r>   -20.1281     0.0000     2.0000 </r>
       <r>   -20.0050     0.0000     2.0000 </r>
       <r>   -19.8819     0.0000     2.0000 </r>
       <r>   -19.7588     0.0000     2.0000 </r>
       <r>   -19.6356     0.0000     2.0000 </r>
       <r>   -19.5125     0.0000     2.0000 </r>
       <r>   -19.3894     0.0000     2.0000 </r>
       <r>   -19.2663     0.0000     2.0000 </r>
       <r>   -19.1432     0.0000     2.0000 </r>
       <r>   -19.0201     0.0000     2.0000 </r>
       <r>   -18.8970     0.0000     2.0000 </r>
       <r>   -18.7739     0.0000     2.0000 </r>
       <r>   -18.6508     0.0000     2.0000 </r>
       <r>   -18.5277     0.0000     2.0000 </r>
       <r>   -18.4045     0.0000     2.0000 </r>
       <r>   -18.2814     0.0000     2.0000 </r>
       <r>   -18.1583     0.0000     2.0000 </r>
       <r>   -18.0352     0.0000     2.0000 </r>
       <r>   -17.9121     0.0000     2.0000 </r>
       <r>   -17.7890     0.0000     2.0000 </r>
       <r>   -17.6659     0.0000     2.0000 </r>
       <r>   -17.5428     0.0000     2.0000 </r>
       <r>   -17.4197     0.0000     2.0000 </r>
       <r>   -17.2966     0.0000     2.0000 </r>
       <r>   -17.1735     0.0000     2.0000 </r>
       <r>   -17.0503     0.0000     2.0000 </r>
       <r>   -16.9272     0.0000     2.0000 </r>
       <r>   -16.8041     0.0000     2.0000 </r>
       <r>   -16.6810     0.0000     2.0000 </r>
       <r>   -16.5579     0.0000     2.0000 </r>
       <r>   -16.4348     0.0000     2.0000 </r>
       <r>   -16.3117     0.0000     2.0000 </r>
       <r>   -16.1886     0.0000     2.0000 </r>
       <r>   -16.0655     0.0000     2.0000 </r>
       <r>   -15.9424     0.0000     2.0000 </r>
       <r>   -15.8192     0.0000     2.0000 </r>
       <r>   -15.6961     0.0000     2.0000 </r>
       <r>   -15.5730     0.0000     2.0000 </r>
       <r>   -15.4499     0.0000     2.0000 </r>
       <r>   -15.3268     0.0000     2.0000 </r>
       <r>   -15.2037     0.0000     2.0000 </r>
       <r>   -15.0806     0.0000     2.0000 </r>
       <r>   -14.9575     0.0000     2.0000 </r>
       <r>   -14.8344     0.0000     2.0000 </r>
       <r>   -14.7113     0.0000     2.0000 </r>
       <r>   -14.5881     0.0000     2.0000 </r>
       <r>   -14.4650     0.0000     2.0000 </r>
       <r>   -14.3419     0.0000     2.0000 </r>
       <r>   -14.2188     0.0000     2.0000 </r>
       <r>   -14.0957     0.0000     2.0000 </r>
       <r>   -13.9726     0.0000     2.0000 </r>
       <r>   -13.8495     0.0000     2.0000 </r>
       <r>   -13.7264     0.0000     2.0000 </r>
       <r>   -13.6033     0.0000     2.0000 </r>
       <r>   -13.4802     0.0000     2.0000 </r>
       <r>   -13.3570     0.0000     2.0000 </r>
       <r>   -13.2339     0.0000     2.0000 </r>
       <r>   -13.1108     0.0000     2.0000 </r>
       <r>   -12.9877     0.0000     2.0000 </r>
       <r>   -12.8646     0.0000     2.0000 </r>
       <r>   -12.7415     0.0000     2.0000 </r>
       <r>   -12.6184     0.0000     2.0000 </r>
       <r>   -12.4953     0.0000     2.0000 </r>
       <r>   -12.3722     0.0000     2.0000 </r>
       <r>   -12.2491     0.0000     2.0000 </r>
       <r>   -12.1259     0.0000     2.0000 </r>
       <r>   -12.0028     0.0000     2.0000 </r>
       <r>   -11.8797     0.0000     2.0000 </r>
       <r>   -11.7566     0.0000     2.0000 </r>
       <r>   -11.6335     0.0000     2.0000 </r>
       <r>   -11.5104     0.0001     2.0000 </r>
       <r>   -11.3873     0.9989     2.1230 </r>
       <r>   -11.2642     6.0580     2.8688 </r>
       <r>   -11.1411     7.1502     3.7490 </r>
       <r>   -11.0180     2.0379     3.9999 </r>
       <r>   -10.8948     0.0006     4.0000 </r>
       <r>   -10.7717     0.0000     4.0000 </r>
       <r>   -10.6486     0.0000     4.0000 </r>
       <r>   -10.5255     0.0000     4.0000 </r>
       <r>   -10.4024     0.0000     4.0000 </r>
       <r>   -10.2793     0.0000     4.0000 </r>
       <r>   -10.1562     0.0000     4.0000 </r>
       <r>   -10.0331     0.0000     4.0000 </r>
       <r>    -9.9100     0.0000     4.0000 </r>
       <r>    -9.7869     0.0000     4.0000 </r>
       <r>    -9.6637     0.0000     4.0000 </r>
       <r>    -9.5406     0.0000     4.0000 </r>
       <r>    -9.4175     0.0000     4.0000 </r>
       <r>    -9.2944     0.0000     4.0000 </r>
       <r>    -9.1713     0.0000     4.0000 </r>
       <r>    -9.0482     0.0000     4.0000 </r>
       <r>    -8.9251     0.0000     4.0000 </r>
       <r>    -8.8020     0.0000     4.0000 </r>
       <r>    -8.6789     0.0000     4.0000 </r>
       <r>    -8.5558     0.0000     4.0000 </r>
       <r>    -8.4327     0.0000     4.0000 </r>
       <r>    -8.3095     0.0000     4.0000 </r>
       <r>    -8.1864     0.0000     4.0000 </r>
       <r>    -8.0633     0.0000     4.0000 </r>
       <r>    -7.9402     0.0000     4.0000 </r>
       <r>    -7.8171     0.0000     4.0000 </r>
       <r>    -7.6940     0.7792     4.0959 </r>
       <r>    -7.5709    12.8967     5.6836 </r>
       <r>    -7.4478    17.3118     7.8149 </r>
       <r>    -7.3247     5.5964     8.5039 </r>
       <r>    -7.2016    11.9513     9.9752 </r>
       <r>    -7.0784     0.2017    10.0000 </r>
       <r>    -6.9553     0.0000    10.0000 </r>
       <r>    -6.8322     0.0000    10.0000 </r>
       <r>    -6.7091     0.0000    10.0000 </r>
       <r>    -6.5860     0.0000    10.0000 </r>
       <r>    -6.4629     0.0000    10.0000 </r>
       <r>    -6.3398     0.0000    10.0000 </r>
       <r>    -6.2167     0.0000    10.0000 </r>
       <r>    -6.0936     0.0000    10.0000 </r>
       <r>    -5.9705     0.0000    10.0000 </r>
       <r>    -5.8473     0.0000    10.0000 </r>
       <r>    -5.7242     0.0000    10.0000 </r>
       <r>    -5.6011     0.0000    10.0000 </r>
       <r>    -5.4780     0.0000    10.0000 </r>
       <r>    -5.3549     0.0000    10.0000 </r>
       <r>    -5.2318     0.0000    10.0000 </r>
       <r>    -5.1087     0.0000    10.0000 </r>
       <r>    -4.9856     0.0000    10.0000 </r>
       <r>    -4.8625     0.0000    10.0000 </r>
       <r>    -4.7394     0.0000    10.0000 </r>
       <r>    -4.6162     0.0000    10.0000 </r>
       <r>    -4.4931     0.0000    10.0000 </r>
       <r>    -4.3700     0.0000    10.0000 </r>
       <r>    -4.2469     0.0000    10.0000 </r>
       <r>    -4.1238     0.0000    10.0000 </r>
       <r>    -4.0007     0.0000    10.0000 </r>
       <r>    -3.8776     0.0000    10.0000 </r>
       <r>    -3.7545     0.0000    10.0000 </r>
       <r>    -3.6314     0.0000    10.0000 </r>
       <r>    -3.5083     0.0000    10.0000 </r>
       <r>    -3.3851     0.0000    10.0000 </r>
       <r>    -3.2620     0.0000    10.0000 </r>
       <r>    -3.1389     0.0000    10.0000 </r>
       <r>    -3.0158     0.0000    10.0000 </r>
       <r>    -2.8927     0.0000    10.0000 </r>
       <r>    -2.7696     0.0000    10.0000 </r>
       <r>    -2.6465     0.0000    10.0000 </r>
       <r>    -2.5234     0.0000    10.0000 </r>
       <r>    -2.4003     0.0000    10.0000 </r>
       <r>    -2.2772     0.0000    10.0000 </r>
       <r>    -2.1540     0.0000    10.0000 </r>
       <r>    -2.0309     0.0000    10.0000 </r>
       <r>    -1.9078     0.0000    10.0000 </r>
       <r>    -1.7847     0.0000    10.0000 </r>
       <r>    -1.6616     0.0000    10.0000 </r>
       <r>    -1.5385     0.0000    10.0000 </r>
       <r>    -1.4154     0.0000    10.0000 </r>
       <r>    -1.2923     0.0000    10.0000 </r>
       <r>    -1.1692     0.3991    10.0491 </r>
       <r>    -1.0461     3.1679    10.4391 </r>
       <r>    -0.9229     0.5511    10.5070 </r>
       <r>    -0.7998    15.3385    12.3953 </r>
       <r>    -0.6767     2.7016    12.7279 </r>
       <r>    -0.5536     7.9751    13.7097 </r>
       <r>    -0.4305     2.3577    14.0000 </r>
       <r>    -0.3074     0.0003    14.0000 </r>
       <r>    -0.1843     0.0000    14.0000 </r>
       <r>    -0.0612     0.5083    14.0626 </r>
       <r>     0.0619     7.8423    15.0280 </r>
       <r>     0.1850     7.8220    15.9910 </r>
       <r>     0.3081     0.0730    16.0000 </r>
       <r>     0.4313     0.0000    16.0000 </r>
       <r>     0.5544     0.0000    16.0000 </r>
       <r>     0.6775     0.0000    16.0000 </r>
       <r>     0.8006     0.0000    16.0000 </r>
       <r>     0.9237     0.0000    16.0000 </r>
       <r>     1.0468     0.0000    16.0000 </r>
       <r>     1.1699     0.0000    16.0000 </r>
       <r>     1.2930     0.0000    16.0000 </r>
       <r>     1.4161     0.0000    16.0000 </r>
       <r>     1.5392     0.0000    16.0000 </r>
       <r>     1.6624     0.0000    16.0000 </r>
       <r>     1.7855     0.0000    16.0000 </r>
       <r>     1.9086     0.0000    16.0000 </r>
       <r>     2.0317     0.0000    16.0000 </r>
       <r>     2.1548     0.0000    16.0000 </r>
       <r>     2.2779     0.0000    16.0000 </r>
       <r>     2.4010     0.0000    16.0000 </r>
       <r>     2.5241     0.0000    16.0000 </r>
       <r>     2.6472     0.0000    16.0000 </r>
       <r>     2.7703     0.0000    16.0000 </r>
       <r>     2.8935     0.0000    16.0000 </r>
       <r>     3.0166     0.0000    16.0000 </r>
       <r>     3.1397     0.0000    16.0000 </r>
       <r>     3.2628     0.0000    16.0000 </r>
       <r>     3.3859     0.0000    16.0000 </r>
       <r>     3.5090     0.0000    16.0000 </r>
       <r>     3.6321     0.0000    16.0000 </r>
       <r>     3.7552     0.0000    16.0000 </r>
       <r>     3.8783     0.0000    16.0000 </r>
       <r>     4.0014     0.0000    16.0000 </r>
       <r>     4.1246     0.0000    16.0000 </r>
       <r>     4.2477     0.0000    16.0000 </r>
       <r>     4.3708     0.0000    16.0000 </r>
       <r>     4.4939     0.0000    16.0000 </r>
       <r>     4.6170     0.0000    16.0000 </r>
       <r>     4.7401     0.0000    16.0000 </r>
       <r>     4.8632     0.0000    16.0000 </r>
       <r>     4.9863     0.0005    16.0001 </r>
       <r>     5.1094     0.3822    16.0471 </r>
       <r>     5.2325     0.2190    16.0741 </r>
       <r>     5.3557     0.4139    16.1250 </r>
       <r>     5.4788     0.7882    16.2221 </r>
       <r>     5.6019     0.0012    16.2222 </r>
       <r>     5.7250     0.0000    16.2222 </r>
       <r>     5.8481     0.0000    16.2222 </r>
       <r>     5.9712     0.7314    16.3123 </r>
       <r>     6.0943     9.7507    17.5127 </r>
       <r>     6.2174     0.3483    17.5556 </r>
       <r>     6.3405     0.0000    17.5556 </r>
       <r>     6.4636     0.0027    17.5559 </r>
       <r>     6.5868     3.9309    18.0398 </r>
       <r>     6.7099     3.2855    18.4443 </r>
       <r>     6.8330     0.6683    18.5266 </r>
       <r>     6.9561     4.7784    19.1148 </r>
       <r>     7.0792     2.9748    19.4811 </r>
       <r>     7.2023     0.0034    19.4815 </r>
       <r>     7.3254     0.1011    19.4939 </r>
       <r>     7.4485     3.2994    19.9001 </r>
       <r>     7.5716     0.2707    19.9334 </r>
       <r>     7.6947     9.6099    21.1165 </r>
       <r>     7.8179     7.1523    21.9970 </r>
       <r>     7.9410     0.0241    22.0000 </r>
       <r>     8.0641     0.0000    22.0000 </r>
       <r>     8.1872     0.0000    22.0000 </r>
       <r>     8.3103     0.0539    22.0066 </r>
       <r>     8.4334     6.3837    22.7925 </r>
       <r>     8.5565     6.8062    23.6304 </r>
       <r>     8.6796     5.9757    24.3661 </r>
       <r>     8.8027     0.3929    24.4145 </r>
       <r>     8.9258     4.2371    24.9361 </r>
       <r>     9.0489     8.5953    25.9943 </r>
       <r>     9.1721     7.5391    26.9224 </r>
       <r>     9.2952     8.6108    27.9825 </r>
       <r>     9.4183     0.1422    28.0000 </r>
       <r>     9.5414     0.0004    28.0001 </r>
       <r>     9.6645     1.5389    28.1895 </r>
       <r>     9.7876     2.0690    28.4442 </r>
       <r>     9.9107     0.0018    28.4444 </r>
       <r>    10.0338     0.0000    28.4444 </r>
       <r>    10.1569     0.0000    28.4444 </r>
       <r>    10.2800     0.0000    28.4444 </r>
       <r>    10.4032     0.1655    28.4648 </r>
       <r>    10.5263     6.5585    29.2722 </r>
       <r>    10.6494     0.4963    29.3333 </r>
       <r>    10.7725     0.0000    29.3333 </r>
       <r>    10.8956     0.0000    29.3333 </r>
       <r>    11.0187     0.0038    29.3338 </r>
       <r>    11.1418     2.3709    29.6257 </r>
       <r>    11.2649     1.2352    29.7778 </r>
       <r>    11.3880     0.0002    29.7778 </r>
       <r>    11.5111     0.0003    29.7778 </r>
       <r>    11.6343     0.5941    29.8509 </r>
       <r>    11.7574     1.3154    30.0129 </r>
       <r>    11.8805     7.3994    30.9238 </r>
       <r>    12.0036     8.6131    31.9842 </r>
       <r>    12.1267     0.1285    32.0000 </r>
       <r>    12.2498     0.0000    32.0000 </r>
       <r>    12.3729     0.0000    32.0000 </r>
       <r>    12.4960     0.0000    32.0000 </r>
       <r>    12.6191     0.0000    32.0000 </r>
       <r>    12.7422     0.0000    32.0000 </r>
       <r>    12.8654     0.0000    32.0000 </r>
       <r>    12.9885     0.0000    32.0000 </r>
       <r>    13.1116     0.0000    32.0000 </r>
       <r>    13.2347     0.0000    32.0000 </r>
       <r>    13.3578     0.0000    32.0000 </r>
       <r>    13.4809     0.0000    32.0000 </r>
       <r>    13.6040     0.0000    32.0000 </r>
      </set>
     </set>
    </array>
   </total>
  </dos>
 </calculation>
 <structure name="finalpos" >
  <crystal>
   <varray name="basis" >
    <v>       4.56700000       0.00000000       0.00000000 </v>
    <v>       0.00000000       4.56700000       0.00000000 </v>
    <v>       0.00000000       0.00000000       4.56700000 </v>
   </varray>
   <i name="volume">     95.25615226 </i>
   <varray name="rec_basis" >
    <v>       0.21896212       0.00000000       0.00000000 </v>
    <v>       0.00000000       0.21896212       0.00000000 </v>
    <v>       0.00000000       0.00000000       0.21896212 </v>
   </varray>
  </crystal>
  <varray name="positions" >
   <v>       0.00000000       0.00000000       0.00000000 </v>
   <v>       0.50000000       0.50000000       0.50000000 </v>
  </varray>
 </structure>
</modeling>
