 running on   32 total cores
 distrk:  each k-point on   32 cores,    1 groups
 distr:  one band on    4 cores,    8 groups
 using from now: INCAR     
 vasp.5.4.4.18Apr17-6-g9f103f2a35 (build Mar 10 2026 18:13:51) complex          
  
 POSCAR found type information on POSCAR  Cs I 
 POSCAR found :  2 types and       2 ions
 scaLAPACK will be used
 LDA part: xc-table for Pade appr. of Perdew
 found WAVECAR, reading the header
 POSCAR, INCAR and KPOINTS ok, starting setup
 FFT: planning ...
 reading WAVECAR
 the WAVECAR file was read successfully
 initial charge from wavefunction
 entering main loop
       N       E                     dE             d eps       ncg     rms          ort
 gam= 0.000 g(H,U,f)=  0.116E+00 0.999E-02 0.910E-14 ort(H,U,f) = 0.000E+00 0.000E+00 0.000E+00
SDA:   1    -0.624146002936E+01   -0.62415E+01   -0.50251E-01    64   0.126E+00 0.000E+00
 gam= 0.382 g(H,U,f)=  0.485E-01 0.739E-02 0.139E-15 ort(H,U,f) = 0.678E-01 0.827E-02 0.124E-15
DMP:   2    -0.628183551078E+01   -0.40375E-01   -0.33979E-01    64   0.559E-01 0.761E-01
 gam= 0.382 g(H,U,f)=  0.134E-01 0.441E-02 0.707E-19 ort(H,U,f) = 0.345E-01 0.779E-02 0.134E-18
DMP:   3    -0.630749550410E+01   -0.25660E-01   -0.13593E-01    64   0.178E-01 0.423E-01
 gam= 0.382 g(H,U,f)=  0.202E-02 0.213E-02 0.103E-15 ort(H,U,f) = 0.731E-02 0.494E-02 0.253E-15
DMP:   4    -0.631677659237E+01   -0.92811E-02   -0.35320E-02    64   0.415E-02 0.122E-01
 gam= 0.382 g(H,U,f)=  0.548E-03 0.924E-03 0.435E-15 ort(H,U,f) =-0.334E-03 0.256E-02 0.881E-15
DMP:   5    -0.631899060736E+01   -0.22140E-02   -0.92825E-03    64   0.147E-02 0.222E-02
 gam= 0.382 g(H,U,f)=  0.390E-03 0.404E-03 0.191E-14 ort(H,U,f) =-0.327E-03 0.122E-02 0.643E-14
DMP:   6    -0.631965922775E+01   -0.66862E-03   -0.45327E-03    64   0.794E-03 0.888E-03
 gam= 0.382 g(H,U,f)=  0.222E-03 0.171E-03 0.158E-17 ort(H,U,f) = 0.111E-04 0.552E-03 0.585E-17
DMP:   7    -0.631999929369E+01   -0.34007E-03   -0.24320E-03    64   0.393E-03 0.563E-03
 gam= 0.382 g(H,U,f)=  0.933E-04 0.704E-04 0.856E-20 ort(H,U,f) = 0.980E-04 0.240E-03 0.348E-19
DMP:   8    -0.632018633049E+01   -0.18704E-03   -0.11711E-03    64   0.164E-03 0.338E-03
 gam= 0.382 g(H,U,f)=  0.260E-04 0.283E-04 0.301E-15 ort(H,U,f) = 0.504E-04 0.999E-04 0.101E-14
DMP:   9    -0.632027240655E+01   -0.86076E-04   -0.44701E-04    64   0.543E-04 0.150E-03
 gam= 0.382 g(H,U,f)=  0.756E-05 0.115E-04 0.480E-16 ort(H,U,f) = 0.127E-04 0.410E-04 0.163E-15
DMP:  10    -0.632030378333E+01   -0.31377E-04   -0.15846E-04    64   0.191E-04 0.537E-04
 gam= 0.382 g(H,U,f)=  0.237E-05 0.475E-05 0.111E-16 ort(H,U,f) = 0.156E-05 0.170E-04 0.402E-16
DMP:  11    -0.632031444429E+01   -0.10661E-04   -0.56850E-05    64   0.712E-05 0.186E-04
 gam= 0.382 g(H,U,f)=  0.118E-05 0.192E-05 0.141E-23 ort(H,U,f) =-0.988E-07 0.705E-05 0.953E-23
DMP:  12    -0.632031835210E+01   -0.39078E-05   -0.23051E-05    64   0.311E-05 0.695E-05
 gam= 0.382 g(H,U,f)=  0.598E-06 0.760E-06 0.210E-24 ort(H,U,f) = 0.232E-06 0.287E-05 0.176E-23
DMP:  13    -0.632032017362E+01   -0.18215E-05   -0.10172E-05    64   0.136E-05 0.310E-05
 gam= 0.382 g(H,U,f)=  0.254E-06 0.290E-06 0.211E-25 ort(H,U,f) = 0.248E-06 0.114E-05 0.267E-24
DMP:  14    -0.632032112116E+01   -0.94753E-06   -0.42962E-06    64   0.544E-06 0.139E-05
 final diagonalization
   1 F= -.63203211E+01 E0= -.63203211E+01  d E =-.224567E-21
