    6    6    1    1
  0.1040579E+02  0.4593700E-09  0.4593700E-09  0.2958700E-09  0.5000000E-15
  1.000000000000000E-004
  CAR 
 rutile TiO2 (HSE06 band gap)            
     48     24     32
 
  0.0000000E+00  0.0000000E+00  0.0000000E+00  0.1041667E-01
    1      -57.409065   1.000000
    2      -57.390799   1.000000
    3      -32.057878   1.000000
    4      -32.057875   1.000000
    5      -31.879999   1.000000
    6      -31.879995   1.000000
    7      -31.827691   1.000000
    8      -31.784482   1.000000
    9      -16.092629   1.000000
   10      -14.838178   1.000000
   11      -14.030380   1.000000
   12      -14.030380   1.000000
   13       -2.443652   1.000000
   14       -1.946894   1.000000
   15       -1.448368   1.000000
   16       -0.327288   1.000000
   17       -0.327286   1.000000
   18        1.061452   1.000000
   19        1.061453   1.000000
   20        1.676064   1.000000
   21        3.136901   1.000000
   22        3.453065   1.000000
   23        3.453065   1.000000
   24        3.892024   1.000000
   25        7.266182   0.000000
   26        7.586965   0.000000
   27        7.865693   0.000000
   28        7.957725   0.000000
   29        7.957733   0.000000
   30        9.778791   0.000000
   31       10.292003   0.000000
   32       13.352461   0.000000
 
  0.2500000E+00  0.0000000E+00  0.0000000E+00  0.4166667E-01
    1      -57.406389   1.000000
    2      -57.393560   1.000000
    3      -32.036573   1.000000
    4      -32.035113   1.000000
    5      -31.904721   1.000000
    6      -31.903241   1.000000
    7      -31.821401   1.000000
    8      -31.790802   1.000000
    9      -15.862363   1.000000
   10      -14.873574   1.000000
   11      -14.227520   1.000000
   12      -14.117321   1.000000
   13       -2.029156   1.000000
   14       -1.688954   1.000000
   15       -0.993392   1.000000
   16       -0.303115   1.000000
   17       -0.289386   1.000000
   18        0.720715   1.000000
   19        0.960851   1.000000
   20        1.753786   1.000000
   21        2.396716   1.000000
   22        2.766484   1.000000
   23        3.039116   1.000000
   24        3.635857   1.000000
   25        7.579629   0.000000
   26        7.954372   0.000000
   27        8.206531   0.000000
   28        8.276115   0.000000
   29        8.292458   0.000000
   30        9.924693   0.000000
   31       10.285710   0.000000
   32       14.167801   0.000000
 
  0.5000000E+00  0.0000000E+00  0.0000000E+00  0.2083333E-01
    1      -57.400021   1.000000
    2      -57.400009   1.000000
    3      -31.998897   1.000000
    4      -31.998886   1.000000
    5      -31.942902   1.000000
    6      -31.942891   1.000000
    7      -31.806120   1.000000
    8      -31.806109   1.000000
    9      -15.298604   1.000000
   10      -15.298599   1.000000
   11      -14.284967   1.000000
   12      -14.284966   1.000000
   13       -1.473705   1.000000
   14       -1.473703   1.000000
   15       -0.265553   1.000000
   16       -0.265550   1.000000
   17        0.394533   1.000000
   18        0.394544   1.000000
   19        0.590194   1.000000
   20        0.590209   1.000000
   21        2.124711   1.000000
   22        2.124712   1.000000
   23        3.077455   1.000000
   24        3.077468   1.000000
   25        8.004345   0.000000
   26        8.004350   0.000000
   27        8.539899   0.000000
   28        8.539907   0.000000
   29        9.133731   0.000000
   30        9.133735   0.000000
   31       14.254469   0.000000
   32       14.286981   0.000000
 
  0.2500000E+00  0.2500000E+00  0.0000000E+00  0.4166667E-01
    1      -57.404495   1.000000
    2      -57.395409   1.000000
    3      -32.065928   1.000000
    4      -31.999739   1.000000
    5      -31.942014   1.000000
    6      -31.874067   1.000000
    7      -31.816932   1.000000
    8      -31.795283   1.000000
    9      -15.713200   1.000000
   10      -14.976605   1.000000
   11      -14.315437   1.000000
   12      -14.100767   1.000000
   13       -2.196335   1.000000
   14       -1.392076   1.000000
   15       -0.656133   1.000000
   16       -0.365048   1.000000
   17       -0.265159   1.000000
   18        0.578841   1.000000
   19        1.227181   1.000000
   20        1.888608   1.000000
   21        2.012053   1.000000
   22        2.658180   1.000000
   23        2.726954   1.000000
   24        3.467713   1.000000
   25        7.337828   0.000000
   26        7.971110   0.000000
   27        8.053627   0.000000
   28        8.544733   0.000000
   29        8.653233   0.000000
   30        9.778385   0.000000
   31       10.575384   0.000000
   32       14.721875   0.000000
 
  0.5000000E+00  0.2500000E+00  0.0000000E+00  0.4166667E-01
    1      -57.400001   1.000000
    2      -57.399989   1.000000
    3      -32.046412   1.000000
    4      -32.046408   1.000000
    5      -31.895553   1.000000
    6      -31.895549   1.000000
    7      -31.806149   1.000000
    8      -31.806138   1.000000
    9      -15.341281   1.000000
   10      -15.341277   1.000000
   11      -14.224899   1.000000
   12      -14.224898   1.000000
   13       -1.864257   1.000000
   14       -1.864252   1.000000
   15       -0.337133   1.000000
   16       -0.337131   1.000000
   17        0.333628   1.000000
   18        0.333646   1.000000
   19        1.505484   1.000000
   20        1.505500   1.000000
   21        2.283789   1.000000
   22        2.283789   1.000000
   23        2.730870   1.000000
   24        2.730883   1.000000
   25        7.688483   0.000000
   26        7.688485   0.000000
   27        8.252184   0.000000
   28        8.252192   0.000000
   29        9.286331   0.000000
   30        9.286333   0.000000
   31       11.621763   0.000000
   32       11.624896   0.000000
 
  0.5000000E+00  0.5000000E+00  0.0000000E+00  0.1041667E-01
    1      -57.399914   1.000000
    2      -57.399902   1.000000
    3      -32.073978   1.000000
    4      -32.073975   1.000000
    5      -31.868106   1.000000
    6      -31.868103   1.000000
    7      -31.806164   1.000000
    8      -31.806152   1.000000
    9      -15.380061   1.000000
   10      -15.380060   1.000000
   11      -14.168201   1.000000
   12      -14.168201   1.000000
   13       -2.177654   1.000000
   14       -2.177654   1.000000
   15       -0.402551   1.000000
   16       -0.402549   1.000000
   17        0.763050   1.000000
   18        0.763050   1.000000
   19        1.552360   1.000000
   20        1.552361   1.000000
   21        2.442590   1.000000
   22        2.442590   1.000000
   23        2.765785   1.000000
   24        2.765786   1.000000
   25        7.291601   0.000000
   26        7.291604   0.000000
   27        7.985742   0.000000
   28        7.985750   0.000000
   29        9.415903   0.000000
   30        9.415910   0.000000
   31       12.749547   0.000000
   32       15.932106   0.000000
 
  0.0000000E+00  0.0000000E+00  0.1666667E+00  0.2083333E-01
    1      -57.397590   1.000000
    2      -57.381804   1.000000
    3      -32.026358   1.000000
    4      -32.026355   1.000000
    5      -31.948002   1.000000
    6      -31.912261   1.000000
    7      -31.874936   1.000000
    8      -31.874933   1.000000
    9      -15.790851   1.000000
   10      -14.671452   1.000000
   11      -14.171639   1.000000
   12      -14.171639   1.000000
   13       -2.024265   1.000000
   14       -1.638321   1.000000
   15       -1.094313   1.000000
   16       -0.569976   1.000000
   17       -0.569974   1.000000
   18        0.868656   1.000000
   19        1.574448   1.000000
   20        1.574448   1.000000
   21        2.082112   1.000000
   22        2.914243   1.000000
   23        2.914243   1.000000
   24        3.708412   1.000000
   25        7.711325   0.000000
   26        7.825721   0.000000
   27        7.881787   0.000000
   28        8.275909   0.000000
   29        8.275915   0.000000
   30       10.036677   0.000000
   31       10.214647   0.000000
   32       13.128413   0.000000
 
  0.2500000E+00  0.0000000E+00  0.1666667E+00  0.8333333E-01
    1      -57.395208   1.000000
    2      -57.384124   1.000000
    3      -32.014159   1.000000
    4      -32.006395   1.000000
    5      -31.940459   1.000000
    6      -31.934935   1.000000
    7      -31.890810   1.000000
    8      -31.878800   1.000000
    9      -15.587281   1.000000
   10      -14.676488   1.000000
   11      -14.362919   1.000000
   12      -14.239683   1.000000
   13       -1.674348   1.000000
   14       -1.355947   1.000000
   15       -0.957055   1.000000
   16       -0.613322   1.000000
   17       -0.152175   1.000000
   18        0.710060   1.000000
   19        1.034385   1.000000
   20        1.519286   1.000000
   21        1.590272   1.000000
   22        2.650773   1.000000
   23        2.791895   1.000000
   24        3.490940   1.000000
   25        7.829697   0.000000
   26        8.150861   0.000000
   27        8.246878   0.000000
   28        8.302989   0.000000
   29        8.636424   0.000000
   30        9.736585   0.000000
   31       10.573753   0.000000
   32       11.735674   0.000000
 
  0.5000000E+00  0.0000000E+00  0.1666667E+00  0.4166667E-01
    1      -57.389681   1.000000
    2      -57.389669   1.000000
    3      -31.980380   1.000000
    4      -31.980375   1.000000
    5      -31.958677   1.000000
    6      -31.958671   1.000000
    7      -31.895125   1.000000
    8      -31.895124   1.000000
    9      -15.080292   1.000000
   10      -15.080287   1.000000
   11      -14.383011   1.000000
   12      -14.383010   1.000000
   13       -1.127134   1.000000
   14       -1.127133   1.000000
   15       -0.632641   1.000000
   16       -0.632638   1.000000
   17        0.309420   1.000000
   18        0.309431   1.000000
   19        0.924659   1.000000
   20        0.924660   1.000000
   21        1.579486   1.000000
   22        1.579496   1.000000
   23        3.128947   1.000000
   24        3.128955   1.000000
   25        8.192853   0.000000
   26        8.192853   0.000000
   27        8.590989   0.000000
   28        8.590989   0.000000
   29        9.142661   0.000000
   30        9.142662   0.000000
   31       11.114417   0.000000
   32       11.118692   0.000000
 
  0.2500000E+00  0.2500000E+00  0.1666667E+00  0.8333333E-01
    1      -57.393595   1.000000
    2      -57.385737   1.000000
    3      -32.033526   1.000000
    4      -31.976793   1.000000
    5      -31.967006   1.000000
    6      -31.925511   1.000000
    7      -31.894915   1.000000
    8      -31.869742   1.000000
    9      -15.449953   1.000000
   10      -14.768554   1.000000
   11      -14.428781   1.000000
   12      -14.235816   1.000000
   13       -1.859193   1.000000
   14       -1.028917   1.000000
   15       -1.013299   1.000000
   16       -0.622117   1.000000
   17        0.107595   1.000000
   18        0.601122   1.000000
   19        1.155880   1.000000
   20        1.478920   1.000000
   21        1.631850   1.000000
   22        2.614791   1.000000
   23        2.653060   1.000000
   24        3.172391   1.000000
   25        7.786475   0.000000
   26        7.882942   0.000000
   27        8.334633   0.000000
   28        8.701718   0.000000
   29        8.725329   0.000000
   30        9.555341   0.000000
   31       10.721286   0.000000
   32       11.326875   0.000000
 
  0.5000000E+00  0.2500000E+00  0.1666667E+00  0.8333333E-01
    1      -57.389675   1.000000
    2      -57.389663   1.000000
    3      -32.019377   1.000000
    4      -32.019374   1.000000
    5      -31.935674   1.000000
    6      -31.935664   1.000000
    7      -31.879681   1.000000
    8      -31.879678   1.000000
    9      -15.110825   1.000000
   10      -15.110821   1.000000
   11      -14.339167   1.000000
   12      -14.339167   1.000000
   13       -1.531442   1.000000
   14       -1.531437   1.000000
   15       -0.862916   1.000000
   16       -0.862911   1.000000
   17        0.779719   1.000000
   18        0.779730   1.000000
   19        1.419661   1.000000
   20        1.419665   1.000000
   21        1.829964   1.000000
   22        1.829978   1.000000
   23        2.704733   1.000000
   24        2.704741   1.000000
   25        8.061631   0.000000
   26        8.061638   0.000000
   27        8.325703   0.000000
   28        8.325703   0.000000
   29        9.113799   0.000000
   30        9.113805   0.000000
   31       11.463054   0.000000
   32       11.467438   0.000000
 
  0.5000000E+00  0.5000000E+00  0.1666667E+00  0.2083333E-01
    1      -57.389652   1.000000
    2      -57.389640   1.000000
    3      -32.040696   1.000000
    4      -32.040693   1.000000
    5      -31.929968   1.000000
    6      -31.929956   1.000000
    7      -31.864565   1.000000
    8      -31.864563   1.000000
    9      -15.138284   1.000000
   10      -15.138283   1.000000
   11      -14.298091   1.000000
   12      -14.298090   1.000000
   13       -1.845844   1.000000
   14       -1.845844   1.000000
   15       -0.983122   1.000000
   16       -0.983121   1.000000
   17        1.554527   1.000000
   18        1.554528   1.000000
   19        1.665473   1.000000
   20        1.665473   1.000000
   21        1.762660   1.000000
   22        1.762661   1.000000
   23        2.388133   1.000000
   24        2.388134   1.000000
   25        7.789584   0.000000
   26        7.789588   0.000000
   27        8.168592   0.000000
   28        8.168599   0.000000
   29        9.109197   0.000000
   30        9.109204   0.000000
   31       11.798185   0.000000
   32       11.798601   0.000000
 
  0.0000000E+00  0.0000000E+00  0.3333333E+00  0.2083333E-01
    1      -57.373530   1.000000
    2      -57.364406   1.000000
    3      -32.180355   1.000000
    4      -32.161517   1.000000
    5      -31.955983   1.000000
    6      -31.955983   1.000000
    7      -31.871131   1.000000
    8      -31.871131   1.000000
    9      -15.099463   1.000000
   10      -14.450976   1.000000
   11      -14.450975   1.000000
   12      -14.408963   1.000000
   13       -1.144833   1.000000
   14       -1.070327   1.000000
   15       -0.505062   1.000000
   16       -0.505062   1.000000
   17       -0.305199   1.000000
   18       -0.086205   1.000000
   19        0.518404   1.000000
   20        1.731985   1.000000
   21        1.731985   1.000000
   22        2.130068   1.000000
   23        2.130069   1.000000
   24        2.857532   1.000000
   25        7.773970   0.000000
   26        8.219753   0.000000
   27        8.731791   0.000000
   28        8.917577   0.000000
   29        8.917583   0.000000
   30        9.339787   0.000000
   31       10.828012   0.000000
   32       11.750700   0.000000
 
  0.2500000E+00  0.0000000E+00  0.3333333E+00  0.8333333E-01
    1      -57.372200   1.000000
    2      -57.365741   1.000000
    3      -32.185186   1.000000
    4      -32.171273   1.000000
    5      -31.942191   1.000000
    6      -31.938020   1.000000
    7      -31.881941   1.000000
    8      -31.878364   1.000000
    9      -15.032078   1.000000
   10      -14.639849   1.000000
   11      -14.419695   1.000000
   12      -14.322185   1.000000
   13       -1.108803   1.000000
   14       -0.963473   1.000000
   15       -0.876496   1.000000
   16       -0.592525   1.000000
   17       -0.053753   1.000000
   18        0.024357   1.000000
   19        0.644085   1.000000
   20        1.525705   1.000000
   21        1.645952   1.000000
   22        2.092544   1.000000
   23        2.261469   1.000000
   24        3.044512   1.000000
   25        7.525491   0.000000
   26        8.364321   0.000000
   27        8.536269   0.000000
   28        8.802042   0.000000
   29        9.156754   0.000000
   30        9.411320   0.000000
   31       10.651598   0.000000
   32       10.740310   0.000000
 
  0.5000000E+00  0.0000000E+00  0.3333333E+00  0.4166667E-01
    1      -57.368965   1.000000
    2      -57.368953   1.000000
    3      -32.185053   1.000000
    4      -32.185043   1.000000
    5      -31.914764   1.000000
    6      -31.914753   1.000000
    7      -31.899089   1.000000
    8      -31.899079   1.000000
    9      -14.861215   1.000000
   10      -14.861214   1.000000
   11      -14.347271   1.000000
   12      -14.347270   1.000000
   13       -1.060998   1.000000
   14       -1.060993   1.000000
   15       -0.757195   1.000000
   16       -0.757188   1.000000
   17        0.057856   1.000000
   18        0.057862   1.000000
   19        0.932617   1.000000
   20        0.932618   1.000000
   21        1.919750   1.000000
   22        1.919757   1.000000
   23        2.800767   1.000000
   24        2.800774   1.000000
   25        7.694462   0.000000
   26        7.694465   0.000000
   27        8.847055   0.000000
   28        8.847062   0.000000
   29        9.356365   0.000000
   30        9.356367   0.000000
   31       10.399179   0.000000
   32       10.400807   0.000000
 
  0.2500000E+00  0.2500000E+00  0.3333333E+00  0.8333333E-01
    1      -57.371228   1.000000
    2      -57.366662   1.000000
    3      -32.184811   1.000000
    4      -32.171073   1.000000
    5      -31.960606   1.000000
    6      -31.914495   1.000000
    7      -31.899146   1.000000
    8      -31.868318   1.000000
    9      -14.961654   1.000000
   10      -14.621560   1.000000
   11      -14.504899   1.000000
   12      -14.323243   1.000000
   13       -1.180271   1.000000
   14       -1.073355   1.000000
   15       -1.069805   1.000000
   16       -0.559172   1.000000
   17       -0.332338   1.000000
   18        0.485618   1.000000
   19        0.956608   1.000000
   20        1.237147   1.000000
   21        1.674610   1.000000
   22        2.166203   1.000000
   23        2.453708   1.000000
   24        3.123022   1.000000
   25        7.516696   0.000000
   26        8.405699   0.000000
   27        8.654612   0.000000
   28        8.658825   0.000000
   29        8.938933   0.000000
   30        9.444380   0.000000
   31       10.301991   0.000000
   32       11.438168   0.000000
 
  0.5000000E+00  0.2500000E+00  0.3333333E+00  0.8333333E-01
    1      -57.368958   1.000000
    2      -57.368946   1.000000
    3      -32.178094   1.000000
    4      -32.178084   1.000000
    5      -31.945985   1.000000
    6      -31.945984   1.000000
    7      -31.875938   1.000000
    8      -31.875937   1.000000
    9      -14.786428   1.000000
   10      -14.786427   1.000000
   11      -14.418321   1.000000
   12      -14.418319   1.000000
   13       -1.253792   1.000000
   14       -1.253787   1.000000
   15       -0.930246   1.000000
   16       -0.930244   1.000000
   17        0.104362   1.000000
   18        0.104368   1.000000
   19        1.323885   1.000000
   20        1.323886   1.000000
   21        1.952254   1.000000
   22        1.952260   1.000000
   23        2.845706   1.000000
   24        2.845714   1.000000
   25        7.906817   0.000000
   26        7.906821   0.000000
   27        8.665610   0.000000
   28        8.665618   0.000000
   29        9.103876   0.000000
   30        9.103881   0.000000
   31       10.825334   0.000000
   32       10.834570   0.000000
 
  0.5000000E+00  0.5000000E+00  0.3333333E+00  0.2083333E-01
    1      -57.368981   1.000000
    2      -57.368970   1.000000
    3      -32.170466   1.000000
    4      -32.170455   1.000000
    5      -31.965229   1.000000
    6      -31.965229   1.000000
    7      -31.865501   1.000000
    8      -31.865501   1.000000
    9      -14.643552   1.000000
   10      -14.643551   1.000000
   11      -14.557588   1.000000
   12      -14.557587   1.000000
   13       -1.294566   1.000000
   14       -1.294566   1.000000
   15       -1.240130   1.000000
   16       -1.240129   1.000000
   17        0.277848   1.000000
   18        0.277849   1.000000
   19        1.409759   1.000000
   20        1.409760   1.000000
   21        2.245943   1.000000
   22        2.245944   1.000000
   23        2.791876   1.000000
   24        2.791877   1.000000
   25        8.428425   0.000000
   26        8.428432   0.000000
   27        8.514377   0.000000
   28        8.514383   0.000000
   29        8.550886   0.000000
   30        8.550893   0.000000
   31       11.465599   0.000000
   32       11.465628   0.000000
 
  0.0000000E+00  0.0000000E+00  0.5000000E+00  0.1041667E-01
    1      -57.358590   1.000000
    2      -57.358578   1.000000
    3      -32.288058   1.000000
    4      -32.288047   1.000000
    5      -31.902482   1.000000
    6      -31.902471   1.000000
    7      -31.887120   1.000000
    8      -31.887110   1.000000
    9      -14.589344   1.000000
   10      -14.589344   1.000000
   11      -14.510520   1.000000
   12      -14.510514   1.000000
   13       -1.047803   1.000000
   14       -1.047780   1.000000
   15       -0.124695   1.000000
   16       -0.124686   1.000000
   17       -0.110174   1.000000
   18       -0.110173   1.000000
   19        0.881831   1.000000
   20        0.881833   1.000000
   21        1.379523   1.000000
   22        1.379527   1.000000
   23        2.288301   1.000000
   24        2.288301   1.000000
   25        8.444441   0.000000
   26        8.444444   0.000000
   27        8.776739   0.000000
   28        8.776746   0.000000
   29        9.227161   0.000000
   30        9.227168   0.000000
   31       10.981227   0.000000
   32       10.981246   0.000000
 
  0.2500000E+00  0.0000000E+00  0.5000000E+00  0.4166667E-01
    1      -57.358615   1.000000
    2      -57.358603   1.000000
    3      -32.294232   1.000000
    4      -32.294222   1.000000
    5      -31.897186   1.000000
    6      -31.897176   1.000000
    7      -31.886274   1.000000
    8      -31.886263   1.000000
    9      -14.819616   1.000000
   10      -14.819614   1.000000
   11      -14.266194   1.000000
   12      -14.266191   1.000000
   13       -1.316096   1.000000
   14       -1.316080   1.000000
   15       -0.589547   1.000000
   16       -0.589541   1.000000
   17        0.328474   1.000000
   18        0.328488   1.000000
   19        0.995217   1.000000
   20        0.995226   1.000000
   21        1.964125   1.000000
   22        1.964133   1.000000
   23        2.135609   1.000000
   24        2.135609   1.000000
   25        7.863296   0.000000
   26        7.863296   0.000000
   27        8.798428   0.000000
   28        8.798435   0.000000
   29        9.403626   0.000000
   30        9.403627   0.000000
   31       10.571941   0.000000
   32       10.571951   0.000000
 
  0.5000000E+00  0.0000000E+00  0.5000000E+00  0.2083333E-01
    1      -57.358559   1.000000
    2      -57.358548   1.000000
    3      -32.300186   1.000000
    4      -32.300176   1.000000
    5      -31.892925   1.000000
    6      -31.892914   1.000000
    7      -31.884424   1.000000
    8      -31.884414   1.000000
    9      -14.925465   1.000000
   10      -14.925464   1.000000
   11      -14.145265   1.000000
   12      -14.145264   1.000000
   13       -1.637854   1.000000
   14       -1.637854   1.000000
   15       -0.467420   1.000000
   16       -0.467420   1.000000
   17        0.262351   1.000000
   18        0.262351   1.000000
   19        1.253388   1.000000
   20        1.253389   1.000000
   21        1.666258   1.000000
   22        1.666259   1.000000
   23        2.769791   1.000000
   24        2.769791   1.000000
   25        7.301159   0.000000
   26        7.301161   0.000000
   27        8.817565   0.000000
   28        8.817574   0.000000
   29        9.497147   0.000000
   30        9.497148   0.000000
   31       10.382384   0.000000
   32       10.382385   0.000000
 
  0.2500000E+00  0.2500000E+00  0.5000000E+00  0.4166667E-01
    1      -57.358566   1.000000
    2      -57.358538   1.000000
    3      -32.298590   1.000000
    4      -32.289371   1.000000
    5      -31.903743   1.000000
    6      -31.891469   1.000000
    7      -31.887592   1.000000
    8      -31.885772   1.000000
    9      -14.928650   1.000000
   10      -14.638830   1.000000
   11      -14.449116   1.000000
   12      -14.141801   1.000000
   13       -1.618635   1.000000
   14       -0.883306   1.000000
   15       -0.844538   1.000000
   16       -0.703768   1.000000
   17       -0.460947   1.000000
   18        0.887397   1.000000
   19        0.984293   1.000000
   20        0.990700   1.000000
   21        1.937251   1.000000
   22        2.199070   1.000000
   23        2.365325   1.000000
   24        2.630562   1.000000
   25        7.486879   0.000000
   26        8.232489   0.000000
   27        8.767077   0.000000
   28        8.806217   0.000000
   29        8.824078   0.000000
   30        9.631593   0.000000
   31       10.268630   0.000000
   32       11.384838   0.000000
 
  0.5000000E+00  0.2500000E+00  0.5000000E+00  0.4166667E-01
    1      -57.358563   1.000000
    2      -57.358551   1.000000
    3      -32.293923   1.000000
    4      -32.293913   1.000000
    5      -31.898401   1.000000
    6      -31.898390   1.000000
    7      -31.886664   1.000000
    8      -31.886653   1.000000
    9      -14.831804   1.000000
   10      -14.831803   1.000000
   11      -14.241211   1.000000
   12      -14.241208   1.000000
   13       -1.548851   1.000000
   14       -1.548850   1.000000
   15       -0.701377   1.000000
   16       -0.701375   1.000000
   17        0.095296   1.000000
   18        0.095305   1.000000
   19        0.980964   1.000000
   20        0.980966   1.000000
   21        2.247078   1.000000
   22        2.247079   1.000000
   23        2.927935   1.000000
   24        2.927937   1.000000
   25        7.583126   0.000000
   26        7.583129   0.000000
   27        8.830384   0.000000
   28        8.830392   0.000000
   29        9.217103   0.000000
   30        9.217109   0.000000
   31       10.662980   0.000000
   32       10.662984   0.000000
 
  0.5000000E+00  0.5000000E+00  0.5000000E+00  0.1041667E-01
    1      -57.358589   1.000000
    2      -57.358577   1.000000
    3      -32.287426   1.000000
    4      -32.287415   1.000000
    5      -31.905055   1.000000
    6      -31.905044   1.000000
    7      -31.887969   1.000000
    8      -31.887958   1.000000
    9      -14.687125   1.000000
   10      -14.687124   1.000000
   11      -14.388237   1.000000
   12      -14.388236   1.000000
   13       -1.259722   1.000000
   14       -1.259721   1.000000
   15       -1.179172   1.000000
   16       -1.179172   1.000000
   17        0.016627   1.000000
   18        0.016629   1.000000
   19        0.912996   1.000000
   20        0.912997   1.000000
   21        2.532340   1.000000
   22        2.532341   1.000000
   23        3.139089   1.000000
   24        3.139089   1.000000
   25        8.041262   0.000000
   26        8.041270   0.000000
   27        8.742572   0.000000
   28        8.742580   0.000000
   29        8.842810   0.000000
   30        8.842819   0.000000
   31       11.497867   0.000000
   32       11.497869   0.000000
