       N       E                     dE             d eps       ncg     rms          ort
DAV:   1     0.616626764986E+03    0.61663E+03   -0.26953E+04   768   0.178E+03
DAV:   2     0.101699449841E+03   -0.51493E+03   -0.50803E+03   768   0.451E+02
DAV:   3     0.685124486719E+02   -0.33187E+02   -0.33153E+02   768   0.118E+02
DAV:   4     0.678425588435E+02   -0.66989E+00   -0.66969E+00   768   0.146E+01
DAV:   5     0.678211201591E+02   -0.21439E-01   -0.21438E-01   768   0.197E+00
SDA:   6    -0.456478396879E+02   -0.11347E+03   -0.21438E-01   768   0.115E+03 0.000E+00
CGA:   7    -0.604144655673E+02   -0.14767E+02   -0.14866E+02   768   0.138E+02-0.195E+00
CGA:   8    -0.642510547083E+02   -0.38366E+01   -0.39891E+01   768   0.681E+01-0.146E+01
CGA:   9    -0.656330870459E+02   -0.13820E+01   -0.13861E+01   768   0.235E+01-0.864E-01
CGA:  10    -0.661108328643E+02   -0.47775E+00   -0.47767E+00   768   0.846E+00 0.112E-01
CGA:  11    -0.662983414344E+02   -0.18751E+00   -0.18751E+00   768   0.272E+00 0.104E-02
CGA:  12    -0.663551952555E+02   -0.56854E-01   -0.56850E-01   768   0.991E-01 0.102E-02
CGA:  13    -0.663804692480E+02   -0.25274E-01   -0.25236E-01   768   0.445E-01 0.564E-03
CGA:  14    -0.663922215695E+02   -0.11752E-01   -0.11745E-01   768   0.207E-01 0.516E-04
CGA:  15    -0.663979728107E+02   -0.57512E-02   -0.57525E-02   768   0.986E-02-0.171E-04
CGA:  16    -0.664002922991E+02   -0.23195E-02   -0.23186E-02   768   0.394E-02 0.447E-04
CGA:  17    -0.664013558802E+02   -0.10636E-02   -0.10634E-02   768   0.200E-02 0.393E-05
CGA:  18    -0.664019055301E+02   -0.54965E-03   -0.55132E-03   768   0.959E-03-0.279E-04
CGA:  19    -0.664021696177E+02   -0.26409E-03   -0.26423E-03   768   0.528E-03-0.208E-05
CGA:  20    -0.664022996887E+02   -0.13007E-03   -0.12974E-03   768   0.244E-03 0.138E-04
CGA:  21    -0.664023729718E+02   -0.73283E-04   -0.73060E-04   768   0.132E-03 0.324E-05
CGA:  22    -0.664024165650E+02   -0.43593E-04   -0.44400E-04   768   0.868E-04-0.774E-05
CGA:  23    -0.664024415938E+02   -0.25029E-04   -0.25193E-04   768   0.546E-04-0.215E-05
CGA:  24    -0.664024551469E+02   -0.13553E-04   -0.13504E-04   768   0.284E-04 0.279E-05
CGA:  25    -0.664024637518E+02   -0.86050E-05   -0.85572E-05   768   0.172E-04 0.952E-06
CGA:  26    -0.664024692032E+02   -0.54514E-05   -0.55452E-05   768   0.139E-04-0.129E-05
CGA:  27    -0.664024724062E+02   -0.32030E-05   -0.32053E-05   768   0.109E-04-0.430E-06
CGA:  28    -0.664024749397E+02   -0.25335E-05   -0.25353E-05   768   0.623E-05 0.657E-06
CGA:  29    -0.664024767474E+02   -0.18076E-05   -0.17870E-05   768   0.407E-05 0.749E-06
CGA:  30    -0.664024780255E+02   -0.12781E-05   -0.12834E-05   768   0.311E-05-0.142E-06
CGA:  31    -0.664024789018E+02   -0.87636E-06   -0.90084E-06   768   0.243E-05-0.459E-06
   1 F= -.66402479E+02 E0= -.66402479E+02  d E =-.138720E-22
