 vasp.5.4.4.18Apr17-6-g9f103f2a35 (build Mar 10 2026 18:13:51) complex          
  
 executed on             LinuxIFC date 2026.07.01  04:29:10
 running on   16 total cores
 distrk:  each k-point on   16 cores,    1 groups
 distr:  one band on NCORES_PER_BAND=   1 cores,   16 groups


--------------------------------------------------------------------------------------------------------


 INCAR:
 POTCAR:    PAW_PBE Ti_sv 26Sep2005               
 POTCAR:    PAW_PBE O 08Apr2002                   

 ----------------------------------------------------------------------------- 
|                                                                             |
|           W    W    AA    RRRRR   N    N  II  N    N   GGGG   !!!           |
|           W    W   A  A   R    R  NN   N  II  NN   N  G    G  !!!           |
|           W    W  A    A  R    R  N N  N  II  N N  N  G       !!!           |
|           W WW W  AAAAAA  RRRRR   N  N N  II  N  N N  G  GGG   !            |
|           WW  WW  A    A  R   R   N   NN  II  N   NN  G    G                |
|           W    W  A    A  R    R  N    N  II  N    N   GGGG   !!!           |
|                                                                             |
|      For optimal performance we recommend to set                            |
|        NCORE= 4 - approx SQRT( number of cores)                             |
|      NCORE specifies how many cores store one orbital (NPAR=cpu/NCORE).     |
|      This setting can  greatly improve the performance of VASP for DFT.     |
|      The default,   NCORE=1            might be grossly inefficient         |
|      on modern multi-core architectures or massively parallel machines.     |
|      Do your own testing !!!!                                               |
|      Unfortunately you need to use the default for GW and RPA calculations. |
|      (for HF NCORE is supported but not extensively tested yet)             |
|                                                                             |
 ----------------------------------------------------------------------------- 

 POTCAR:    PAW_PBE Ti_sv 26Sep2005               
   SHA256 =  4d747badb5a5ea28d858fbac70885b3f8929d6fd9e5b0dbe1ecb9878dc164da1 Ti
   COPYR  = (c) Copyright 26Sep2005 Georg Kresse                                
   COPYR  = This file is part of the software VASP. Any use, copying, and all ot
   COPYR  = If you do not have a valid VASP license, you may not use, copy or di
   VRHFIN =Ti: 3p4s3d                                                           
   LEXCH  = PE                                                                  
   EATOM  =  1588.0892 eV,  116.7213 Ry                                         
                                                                                
   TITEL  = PAW_PBE Ti_sv 26Sep2005                                             
   LULTRA =        F    use ultrasoft PP ?                                      
   IUNSCR =        1    unscreen: 0-lin 1-nonlin 2-no                           
   RPACOR =    2.000    partial core radius                                     
   POMASS =   47.880; ZVAL   =   12.000    mass and valenz                      
   RCORE  =    2.300    outmost cutoff radius                                   
   RWIGS  =    2.300; RWIGS  =    1.217    wigner-seitz radius (au A)           
   ENMAX  =  274.610; ENMIN  =  205.957 eV                                      
   ICORE  =        3    local potential                                         
   LCOR   =        T    correct aug charges                                     
   LPAW   =        T    paw PP                                                  
   EAUG   =  482.848                                                            
   RMAX   =    2.348    core radius for proj-oper                               
   RAUG   =    1.300    factor for augmentation sphere                          
   RDEP   =    2.381    radius for radial grids                                 
   RDEPT  =    1.930    core radius for aug-charge                              
                                                                                
   Atomic configuration                                                         
    8 entries                                                                   
     n  l   j            E        occ.                                          
     1  0  0.50     -4865.3608   2.0000                                         
     2  0  0.50      -533.1368   2.0000                                         
     2  1  1.50      -440.5031   6.0000                                         
     3  0  0.50       -59.3186   2.0000                                         
     4  0  0.50        -3.7291   1.0000                                         
     3  1  1.50       -35.7012   6.0000                                         
     3  2  2.50        -1.9157   3.0000                                         
     4  3  2.50        -1.3606   0.0000                                         
   Description                                                                  
     l       E           TYP  RCUT    TYP  RCUT                                 
     0    -59.3185931     23  1.800                                             
     0     -3.7290822     23  2.300                                             
     1    -35.7012045     23  2.300                                             
     1     -1.3605826     23  2.300                                             
     2     -1.9156920     23  2.300                                             
     2     -0.0236318     23  2.300                                             
     3     -1.3605826     23  2.300                                             
  local pseudopotential read in
  partial core-charges read in
  partial kinetic energy density read in
  atomic valenz-charges read in
  non local Contribution for L=           0  read in
    real space projection operators read in
  non local Contribution for L=           0  read in
    real space projection operators read in
  non local Contribution for L=           1  read in
    real space projection operators read in
  non local Contribution for L=           1  read in
    real space projection operators read in
  non local Contribution for L=           2  read in
    real space projection operators read in
  non local Contribution for L=           2  read in
    real space projection operators read in
    PAW grid and wavefunctions read in
 
   number of l-projection  operators is LMAX  =           6
   number of lm-projection operators is LMMAX =          18
 
 POTCAR:    PAW_PBE O 08Apr2002                   
   SHA256 =  818f92134a0a090dccd8ba1447fa70422a3b330e708bb4f08108d8ae51209ddf O/
   COPYR  = (c) Copyright 08Apr2002 Georg Kresse                                
   COPYR  = This file is part of the software VASP. Any use, copying, and all ot
   COPYR  = If you do not have a valid VASP license, you may not use, copy or di
   VRHFIN =O: s2p4                                                              
   LEXCH  = PE                                                                  
   EATOM  =   432.3788 eV,   31.7789 Ry                                         
                                                                                
   TITEL  = PAW_PBE O 08Apr2002                                                 
   LULTRA =        F    use ultrasoft PP ?                                      
   IUNSCR =        1    unscreen: 0-lin 1-nonlin 2-no                           
   RPACOR =    1.200    partial core radius                                     
   POMASS =   16.000; ZVAL   =    6.000    mass and valenz                      
   RCORE  =    1.520    outmost cutoff radius                                   
   RWIGS  =    1.550; RWIGS  =    0.820    wigner-seitz radius (au A)           
   ENMAX  =  400.000; ENMIN  =  300.000 eV                                      
   ICORE  =        2    local potential                                         
   LCOR   =        T    correct aug charges                                     
   LPAW   =        T    paw PP                                                  
   EAUG   =  605.392                                                            
   DEXC   =    0.000                                                            
   RMAX   =    1.553    core radius for proj-oper                               
   RAUG   =    1.300    factor for augmentation sphere                          
   RDEP   =    1.550    radius for radial grids                                 
   RDEPT  =    1.329    core radius for aug-charge                              
                                                                                
   Atomic configuration                                                         
    4 entries                                                                   
     n  l   j            E        occ.                                          
     1  0  0.50      -514.6923   2.0000                                         
     2  0  0.50       -23.9615   2.0000                                         
     2  1  0.50        -9.0305   4.0000                                         
     3  2  1.50        -9.5241   0.0000                                         
   Description                                                                  
     l       E           TYP  RCUT    TYP  RCUT                                 
     0    -23.9615318     23  1.200                                             
     0     -9.5240782     23  1.200                                             
     1     -9.0304911     23  1.520                                             
     1      8.1634956     23  1.520                                             
     2     -9.5240782      7  1.500                                             
  local pseudopotential read in
  partial core-charges read in
  partial kinetic energy density read in
  kinetic energy density of atom read in
  atomic valenz-charges read in
  non local Contribution for L=           0  read in
    real space projection operators read in
  non local Contribution for L=           0  read in
    real space projection operators read in
  non local Contribution for L=           1  read in
    real space projection operators read in
  non local Contribution for L=           1  read in
    real space projection operators read in
    PAW grid and wavefunctions read in
 
   number of l-projection  operators is LMAX  =           4
   number of lm-projection operators is LMMAX =           8
 
  PAW_PBE Ti_sv 26Sep2005               :
 energy of atom  1       EATOM=-1588.0892
 kinetic energy error for atom=    0.0046 (will be added to EATOM!!)
  PAW_PBE O 08Apr2002                   :
 energy of atom  2       EATOM= -432.3788
 kinetic energy error for atom=    0.0224 (will be added to EATOM!!)
 
 
 POSCAR: rutile TiO2 (6-atom primitive cell; a=b=
  positions in cartesian coordinates
  No initial velocities read in
 exchange correlation table for  LEXCH =        8
   RHO(1)=    0.500       N(1)  =     2000
   RHO(2)=  100.500       N(2)  =     4000
 


--------------------------------------------------------------------------------------------------------


 ion  position               nearest neighbor table
   1  0.000  0.000  0.000-   5 1.95   6 1.95   5 1.95   6 1.95   3 1.98   4 1.98
   2  0.500  0.500  0.500-   3 1.95   4 1.95   3 1.95   4 1.95   5 1.98   6 1.98
   3  0.305  0.305  0.000-   2 1.95   2 1.95   1 1.98
   4  0.695  0.695  0.000-   2 1.95   2 1.95   1 1.98
   5  0.805  0.195  0.500-   1 1.95   1 1.95   2 1.98
   6  0.195  0.805  0.500-   1 1.95   1 1.95   2 1.98
 
  LATTYP: Found a simple tetragonal cell.
 ALAT       =     4.5937000000
 C/A-ratio  =     0.6440777587
  
  Lattice vectors:
  
 A1 = (   4.5937000000,   0.0000000000,   0.0000000000)
 A2 = (   0.0000000000,   4.5937000000,   0.0000000000)
 A3 = (   0.0000000000,   0.0000000000,   2.9587000000)


Analysis of symmetry for initial positions (statically):
=====================================================================
 Subroutine PRICEL returns:
 Original cell was already a primitive cell.
 

 Routine SETGRP: Setting up the symmetry group for a 
 simple tetragonal supercell.


 Subroutine GETGRP returns: Found 16 space group operations
 (whereof  8 operations were pure point group operations)
 out of a pool of 16 trial point group operations.


The static configuration has the point symmetry D_2h.
 The point group associated with its full space group is D_4h.


Analysis of symmetry for dynamics (positions and initial velocities):
=====================================================================
 Subroutine PRICEL returns:
 Original cell was already a primitive cell.
 

 Routine SETGRP: Setting up the symmetry group for a 
 simple tetragonal supercell.


 Subroutine GETGRP returns: Found 16 space group operations
 (whereof  8 operations were pure point group operations)
 out of a pool of 16 trial point group operations.


The dynamic configuration has the point symmetry D_2h.
 The point group associated with its full space group is D_4h.


 Subroutine INISYM returns: Found 16 space group operations
 (whereof  8 operations are pure point group operations),
 and found     1 'primitive' translations

 
 
 KPOINTS: Gamma-centered 4x4x6 mesh               

Automatic generation of k-mesh.
Space group operators:
 irot       det(A)        alpha          n_x          n_y          n_z        tau_x        tau_y        tau_z
    1     1.000000     0.000000     1.000000     0.000000     0.000000     0.000000     0.000000     0.000000
    2    -1.000000     0.000000     1.000000     0.000000     0.000000     0.000000     0.000000     0.000000
    3     1.000000   179.999999     0.000000     0.000000     1.000000     0.000000     0.000000     0.000000
    4    -1.000000   179.999999     0.000000     0.000000     1.000000     0.000000     0.000000     0.000000
    5     1.000000   180.000000     0.707107     0.707107     0.000000     0.000000     0.000000     0.000000
    6    -1.000000   180.000000     0.707107     0.707107     0.000000     0.000000     0.000000     0.000000
    7     1.000000   180.000000     0.707107    -0.707107     0.000000     0.000000     0.000000     0.000000
    8    -1.000000   180.000000     0.707107    -0.707107     0.000000     0.000000     0.000000     0.000000
    9     1.000000    90.000000     0.000000     0.000000    -1.000000     0.500000     0.500000     0.500000
   10    -1.000000    90.000000     0.000000     0.000000    -1.000000     0.500000     0.500000     0.500000
   11     1.000000    90.000000     0.000000     0.000000     1.000000     0.500000     0.500000     0.500000
   12    -1.000000    90.000000     0.000000     0.000000     1.000000     0.500000     0.500000     0.500000
   13     1.000000   180.000000     0.000000     1.000000     0.000000     0.500000     0.500000     0.500000
   14    -1.000000   180.000000     0.000000     1.000000     0.000000     0.500000     0.500000     0.500000
   15     1.000000   180.000000     1.000000     0.000000     0.000000     0.500000     0.500000     0.500000
   16    -1.000000   180.000000     1.000000     0.000000     0.000000     0.500000     0.500000     0.500000
 
 Subroutine IBZKPT returns following result:
 ===========================================
 
 Found     24 irreducible k-points:
 
 Following reciprocal coordinates:
            Coordinates               Weight
  0.000000  0.000000  0.000000      1.000000
  0.250000  0.000000  0.000000      4.000000
  0.500000  0.000000  0.000000      2.000000
  0.250000  0.250000  0.000000      4.000000
  0.500000  0.250000  0.000000      4.000000
  0.500000  0.500000  0.000000      1.000000
  0.000000  0.000000  0.166667      2.000000
  0.250000  0.000000  0.166667      8.000000
  0.500000  0.000000  0.166667      4.000000
  0.250000  0.250000  0.166667      8.000000
  0.500000  0.250000  0.166667      8.000000
  0.500000  0.500000  0.166667      2.000000
  0.000000  0.000000  0.333333      2.000000
  0.250000  0.000000  0.333333      8.000000
  0.500000  0.000000  0.333333      4.000000
  0.250000  0.250000  0.333333      8.000000
  0.500000  0.250000  0.333333      8.000000
  0.500000  0.500000  0.333333      2.000000
  0.000000  0.000000  0.500000      1.000000
  0.250000  0.000000  0.500000      4.000000
  0.500000  0.000000  0.500000      2.000000
  0.250000  0.250000  0.500000      4.000000
  0.500000  0.250000  0.500000      4.000000
  0.500000  0.500000  0.500000      1.000000
 
 Following cartesian coordinates:
            Coordinates               Weight
  0.000000  0.000000  0.000000      1.000000
  0.054422  0.000000  0.000000      4.000000
  0.108845  0.000000  0.000000      2.000000
  0.054422  0.054422  0.000000      4.000000
  0.108845  0.054422  0.000000      4.000000
  0.108845  0.108845  0.000000      1.000000
  0.000000  0.000000  0.056331      2.000000
  0.054422  0.000000  0.056331      8.000000
  0.108845  0.000000  0.056331      4.000000
  0.054422  0.054422  0.056331      8.000000
  0.108845  0.054422  0.056331      8.000000
  0.108845  0.108845  0.056331      2.000000
  0.000000  0.000000  0.112662      2.000000
  0.054422  0.000000  0.112662      8.000000
  0.108845  0.000000  0.112662      4.000000
  0.054422  0.054422  0.112662      8.000000
  0.108845  0.054422  0.112662      8.000000
  0.108845  0.108845  0.112662      2.000000
  0.000000  0.000000  0.168993      1.000000
  0.054422  0.000000  0.168993      4.000000
  0.108845  0.000000  0.168993      2.000000
  0.054422  0.054422  0.168993      4.000000
  0.108845  0.054422  0.168993      4.000000
  0.108845  0.108845  0.168993      1.000000
 
 
 Subroutine IBZKPT_HF returns following result:
 ==============================================
 
 Found     96 k-points in 1st BZ
 the following     96 k-points will be used (e.g. in the exchange kernel)
 Following reciprocal coordinates:   # in IRBZ
  0.000000  0.000000  0.000000    0.01041667   1 t-inv F
  0.250000  0.000000  0.000000    0.01041667   2 t-inv F
  0.500000  0.000000  0.000000    0.01041667   3 t-inv F
  0.250000  0.250000  0.000000    0.01041667   4 t-inv F
  0.500000  0.250000  0.000000    0.01041667   5 t-inv F
  0.500000  0.500000  0.000000    0.01041667   6 t-inv F
  0.000000  0.000000  0.166667    0.01041667   7 t-inv F
  0.250000  0.000000  0.166667    0.01041667   8 t-inv F
  0.500000  0.000000  0.166667    0.01041667   9 t-inv F
  0.250000  0.250000  0.166667    0.01041667  10 t-inv F
  0.500000  0.250000  0.166667    0.01041667  11 t-inv F
  0.500000  0.500000  0.166667    0.01041667  12 t-inv F
  0.000000  0.000000  0.333333    0.01041667  13 t-inv F
  0.250000  0.000000  0.333333    0.01041667  14 t-inv F
  0.500000  0.000000  0.333333    0.01041667  15 t-inv F
  0.250000  0.250000  0.333333    0.01041667  16 t-inv F
  0.500000  0.250000  0.333333    0.01041667  17 t-inv F
  0.500000  0.500000  0.333333    0.01041667  18 t-inv F
  0.000000  0.000000  0.500000    0.01041667  19 t-inv F
  0.250000  0.000000  0.500000    0.01041667  20 t-inv F
  0.500000  0.000000  0.500000    0.01041667  21 t-inv F
  0.250000  0.250000  0.500000    0.01041667  22 t-inv F
  0.500000  0.250000  0.500000    0.01041667  23 t-inv F
  0.500000  0.500000  0.500000    0.01041667  24 t-inv F
 -0.250000  0.000000  0.000000    0.01041667   2 t-inv F
  0.000000  0.250000  0.000000    0.01041667   2 t-inv F
  0.000000 -0.250000  0.000000    0.01041667   2 t-inv F
  0.000000  0.500000  0.000000    0.01041667   3 t-inv F
 -0.250000 -0.250000  0.000000    0.01041667   4 t-inv F
 -0.250000  0.250000  0.000000    0.01041667   4 t-inv F
  0.250000 -0.250000  0.000000    0.01041667   4 t-inv F
 -0.500000 -0.250000  0.000000    0.01041667   5 t-inv F
  0.250000  0.500000  0.000000    0.01041667   5 t-inv F
 -0.250000 -0.500000  0.000000    0.01041667   5 t-inv F
  0.000000  0.000000 -0.166667    0.01041667   7 t-inv F
 -0.250000  0.000000 -0.166667    0.01041667   8 t-inv F
 -0.250000  0.000000  0.166667    0.01041667   8 t-inv F
  0.250000  0.000000 -0.166667    0.01041667   8 t-inv F
  0.000000  0.250000 -0.166667    0.01041667   8 t-inv F
  0.000000 -0.250000  0.166667    0.01041667   8 t-inv F
  0.000000 -0.250000 -0.166667    0.01041667   8 t-inv F
  0.000000  0.250000  0.166667    0.01041667   8 t-inv F
 -0.500000  0.000000 -0.166667    0.01041667   9 t-inv F
  0.000000  0.500000 -0.166667    0.01041667   9 t-inv F
  0.000000 -0.500000  0.166667    0.01041667   9 t-inv F
 -0.250000 -0.250000 -0.166667    0.01041667  10 t-inv F
 -0.250000 -0.250000  0.166667    0.01041667  10 t-inv F
  0.250000  0.250000 -0.166667    0.01041667  10 t-inv F
 -0.250000  0.250000  0.166667    0.01041667  10 t-inv F
  0.250000 -0.250000 -0.166667    0.01041667  10 t-inv F
  0.250000 -0.250000  0.166667    0.01041667  10 t-inv F
 -0.250000  0.250000 -0.166667    0.01041667  10 t-inv F
 -0.500000 -0.250000 -0.166667    0.01041667  11 t-inv F
 -0.500000 -0.250000  0.166667    0.01041667  11 t-inv F
  0.500000  0.250000 -0.166667    0.01041667  11 t-inv F
  0.250000  0.500000 -0.166667    0.01041667  11 t-inv F
 -0.250000 -0.500000  0.166667    0.01041667  11 t-inv F
 -0.250000 -0.500000 -0.166667    0.01041667  11 t-inv F
  0.250000  0.500000  0.166667    0.01041667  11 t-inv F
 -0.500000 -0.500000 -0.166667    0.01041667  12 t-inv F
  0.000000  0.000000 -0.333333    0.01041667  13 t-inv F
 -0.250000  0.000000 -0.333333    0.01041667  14 t-inv F
 -0.250000  0.000000  0.333333    0.01041667  14 t-inv F
  0.250000  0.000000 -0.333333    0.01041667  14 t-inv F
  0.000000  0.250000 -0.333333    0.01041667  14 t-inv F
  0.000000 -0.250000  0.333333    0.01041667  14 t-inv F
  0.000000 -0.250000 -0.333333    0.01041667  14 t-inv F
  0.000000  0.250000  0.333333    0.01041667  14 t-inv F
 -0.500000  0.000000 -0.333333    0.01041667  15 t-inv F
  0.000000  0.500000 -0.333333    0.01041667  15 t-inv F
  0.000000 -0.500000  0.333333    0.01041667  15 t-inv F
 -0.250000 -0.250000 -0.333333    0.01041667  16 t-inv F
 -0.250000 -0.250000  0.333333    0.01041667  16 t-inv F
  0.250000  0.250000 -0.333333    0.01041667  16 t-inv F
 -0.250000  0.250000  0.333333    0.01041667  16 t-inv F
  0.250000 -0.250000 -0.333333    0.01041667  16 t-inv F
  0.250000 -0.250000  0.333333    0.01041667  16 t-inv F
 -0.250000  0.250000 -0.333333    0.01041667  16 t-inv F
 -0.500000 -0.250000 -0.333333    0.01041667  17 t-inv F
 -0.500000 -0.250000  0.333333    0.01041667  17 t-inv F
  0.500000  0.250000 -0.333333    0.01041667  17 t-inv F
  0.250000  0.500000 -0.333333    0.01041667  17 t-inv F
 -0.250000 -0.500000  0.333333    0.01041667  17 t-inv F
 -0.250000 -0.500000 -0.333333    0.01041667  17 t-inv F
  0.250000  0.500000  0.333333    0.01041667  17 t-inv F
 -0.500000 -0.500000 -0.333333    0.01041667  18 t-inv F
 -0.250000  0.000000 -0.500000    0.01041667  20 t-inv F
  0.000000  0.250000 -0.500000    0.01041667  20 t-inv F
  0.000000 -0.250000  0.500000    0.01041667  20 t-inv F
  0.000000  0.500000 -0.500000    0.01041667  21 t-inv F
 -0.250000 -0.250000 -0.500000    0.01041667  22 t-inv F
 -0.250000  0.250000  0.500000    0.01041667  22 t-inv F
  0.250000 -0.250000 -0.500000    0.01041667  22 t-inv F
 -0.500000 -0.250000 -0.500000    0.01041667  23 t-inv F
  0.250000  0.500000 -0.500000    0.01041667  23 t-inv F
 -0.250000 -0.500000  0.500000    0.01041667  23 t-inv F


--------------------------------------------------------------------------------------------------------




 Dimension of arrays:
   k-points           NKPTS =     24   k-points in BZ     NKDIM =     96   number of bands    NBANDS=     32
   number of dos      NEDOS =    301   number of ions     NIONS =      6
   non local maximal  LDIM  =      6   non local SUM 2l+1 LMDIM =     18
   total plane-waves  NPLWV =  31104
   max r-space proj   IRMAX =      1   max aug-charges    IRDMAX=  19539
   dimension x,y,z NGX =    36 NGY =   36 NGZ =   24
   dimension x,y,z NGXF=    72 NGYF=   72 NGZF=   48
   support grid    NGXF=    72 NGYF=   72 NGZF=   48
   ions per type =               2   4
   NGX,Y,Z   is equivalent  to a cutoff of  13.03, 13.03, 13.49 a.u.
   NGXF,Y,Z  is equivalent  to a cutoff of  26.06, 26.06, 26.97 a.u.

 SYSTEM =  rutile TiO2 (HSE06 band gap)            
 POSCAR =  rutile TiO2 (6-atom primitive cell; a=b=

 Startparameter for this run:
   NWRITE =      2    write-flag & timer
   PREC   = accura    normal or accurate (medium, high low for compatibility)
   ISTART =      0    job   : 0-new  1-cont  2-samecut
   ICHARG =      2    charge: 1-file 2-atom 10-const
   ISPIN  =      1    spin polarized calculation?
   LNONCOLLINEAR =      F non collinear calculations
   LSORBIT =      F    spin-orbit coupling
   INIWAV =      1    electr: 0-lowe 1-rand  2-diag
   LASPH  =      F    aspherical Exc in radial PAW
   METAGGA=      F    non-selfconsistent MetaGGA calc.

 Electronic Relaxation 1
   ENCUT  =  500.0 eV  36.75 Ry    6.06 a.u.   8.38  8.38  5.39*2*pi/ulx,y,z
   ENINI  =  500.0     initial cutoff
   ENAUG  =  605.4 eV  augmentation charge cutoff
   NELM   =    200;   NELMIN=  6; NELMDL= -5     # of ELM steps 
   EDIFF  = 0.1E-05   stopping-criterion for ELM
   LREAL  =      F    real-space projection
   NLSPLINE    = F    spline interpolate recip. space projectors
   LCOMPAT=      F    compatible to vasp.4.4
   GGA_COMPAT  = T    GGA compatible to vasp.4.4-vasp.4.6
   LMAXPAW     = -100 max onsite density
   LMAXMIX     =    2 max onsite mixed and CHGCAR
   VOSKOWN=      0    Vosko Wilk Nusair interpolation
   ROPT   =    0.00000   0.00000
 Ionic relaxation
   EDIFFG = 0.1E-04   stopping-criterion for IOM
   NSW    =      0    number of steps for IOM
   NBLOCK =      1;   KBLOCK =      1    inner block; outer block 
   IBRION =     -1    ionic relax: 0-MD 1-quasi-New 2-CG
   NFREE  =      0    steps in history (QN), initial steepest desc. (CG)
   ISIF   =      0    stress and relaxation
   IWAVPR =     10    prediction:  0-non 1-charg 2-wave 3-comb
   ISYM   =      3    0-nonsym 1-usesym 2-fastsym
   LCORR  =      T    Harris-Foulkes like correction to forces

   POTIM  = 0.5000    time-step for ionic-motion
   TEIN   =    0.0    initial temperature
   TEBEG  =    0.0;   TEEND  =   0.0 temperature during run
   SMASS  =  -3.00    Nose mass-parameter (am)
   estimated Nose-frequenzy (Omega)   =  0.10E-29 period in steps =****** mass=  -0.482E-27a.u.
   SCALEE = 1.0000    scale energy and forces
   NPACO  =    256;   APACO  = 16.0  distance and # of slots for P.C.
   PSTRESS=    0.0 pullay stress

  Mass of Ions in am
   POMASS =  47.88 16.00
  Ionic Valenz
   ZVAL   =  12.00  6.00
  Atomic Wigner-Seitz radii
   RWIGS  =  -1.00 -1.00
  virtual crystal weights 
   VCA    =   1.00  1.00
   NELECT =      48.0000    total number of electrons
   NUPDOWN=      -1.0000    fix difference up-down

 DOS related values:
   EMIN   =  10.00;   EMAX   =-10.00  energy-range for DOS
   EFERMI =   0.00
   ISMEAR =     0;   SIGMA  =   0.05  broadening in eV -4-tet -1-fermi 0-gaus

 Electronic relaxation 2 (details)
   IALGO  =     58    algorithm
   LDIAG  =      T    sub-space diagonalisation (order eigenvalues)
   LSUBROT=      F    optimize rotation matrix (better conditioning)
   TURBO    =      0    0=normal 1=particle mesh
   IRESTART =      0    0=no restart 2=restart with 2 vectors
   NREBOOT  =      0    no. of reboots
   NMIN     =      0    reboot dimension
   EREF     =   0.00    reference energy to select bands
   IMIX   =      4    mixing-type and parameters
     AMIX     =   0.40;   BMIX     =  1.00
     AMIX_MAG =   1.60;   BMIX_MAG =  1.00
     AMIN     =   0.10
     WC   =   100.;   INIMIX=   1;  MIXPRE=   1;  MAXMIX= -45

 Intra band minimization:
   WEIMIN = 0.0000     energy-eigenvalue tresh-hold
   EBREAK =  0.78E-08  absolut break condition
   DEPER  =   0.30     relativ break condition  

   TIME   =   0.40     timestep for ELM

  volume/ion in A,a.u.               =      10.41        70.22
  Fermi-wavevector in a.u.,A,eV,Ry     =   1.499730  2.834079 30.602103  2.249191
  Thomas-Fermi vector in A             =   2.611322
 
 Write flags
   LWAVE        =      F    write WAVECAR
   LDOWNSAMPLE  =      F    k-point downsampling of WAVECAR
   LCHARG       =      F    write CHGCAR
   LVTOT        =      F    write LOCPOT, total local potential
   LVHAR        =      F    write LOCPOT, Hartree potential only
   LELF         =      F    write electronic localiz. function (ELF)
   LORBIT       =      0    0 simple, 1 ext, 2 COOP (PROOUT), +10 PAW based schemes


 Dipole corrections
   LMONO  =      F    monopole corrections only (constant potential shift)
   LDIPOL =      F    correct potential (dipole corrections)
   IDIPOL =      0    1-x, 2-y, 3-z, 4-all directions 
   EPSILON=  1.0000000 bulk dielectric constant

 Exchange correlation treatment:
   GGA     =    --    GGA type
   LEXCH   =     8    internal setting for exchange type
   VOSKOWN=      0    Vosko Wilk Nusair interpolation
   EXXOEP  =     0    0=HF, 1=EXX-LHF (local Hartree Fock) 2=EXX OEP
   LHFCALC =     T    Hartree Fock is set to
   LSYMGRAD=     F    symmetrize gradient (conserves proper symmetry)
   PRECFOCK=fast      Normal, Fast or Accurate (Low or Medium for compatibility)
   LRHFCALC=     F    long range Hartree Fock
   LRSCOR  =     F    long range correlation only (use DFT for short range part)
   LTHOMAS =     F    Thomas Fermi screening in HF
   LMODELHF=     F    short range full HF, long range fraction AEXX
   ENCUT4O =  -1.0   cutoff for four orbital integrals eV
   LMAXFOCK=     4    L truncation for augmentation on plane wave grid
   LMAXFOCKAE=  -1    L truncation for all-electron charge restoration on plane wave grid
   NMAXFOCKAE=   1    number of basis functions for all-electron charge restoration
   LFOCKAEDFT=     F  apply the AE augmentation even for DFT
   NKREDX  =     1    reduce k-point grid by
   NKREDY  =     1    reduce k-point grid by
   NKREDZ  =     1    reduce k-point grid by
   SHIFTRED=     F    shift reduced grid of Gamma
   HFKIDENT=     F    idential grid for each k-point
   ODDONLY =     F    use only odd q-grid points
   EVENONLY=     F    use only even q-grid points
   HFALPHA =   -1.0000 decay constant for conv. correction
   MCALPHA =    0.0000 extent of test-charge in conv. correction in multipole expansion
   AEXX    =    0.2500 exact exchange contribution
   HFSCREEN=    0.2000 screening length (either q_TF or 0.3 A-1)
   HFSCREENC=   0.2000 screening length for correlation (either q_TF or 0.3 A-1)
   HFRCUT  =    0.0000 spherical cutoff for potential kernel
   ALDAX   =    0.7500 LDA exchange part
   AGGAX   =    0.7500 GGA exchange part
   ALDAC   =    1.0000 LDA correlation
   AGGAC   =    1.0000 GGA correlation
   ENCUTFOCK=  -1.0 apply spherical cutoff to Coloumb kernel
   NBANDSGWLOW=     1    first orbital included in HF term
   NBLOCK_FOCK=    64    blocking factor in FOCK_ACC
 Linear response parameters
   LEPSILON=     F    determine dielectric tensor
   LRPA    =     F    only Hartree local field effects (RPA)
   LNABLA  =     F    use nabla operator in PAW spheres
   LVEL    =     F    velocity operator in full k-point grid
   LINTERFAST=   F  fast interpolation
   KINTER  =     0    interpolate to denser k-point grid
   CSHIFT  =0.1000    complex shift for real part using Kramers Kronig
   OMEGAMAX=  -1.0    maximum frequency
   DEG_THRESHOLD= 0.2000000E-02 threshold for treating states as degnerate
   RTIME   =   -0.100 relaxation time in fs
  (WPLASMAI=    0.000 imaginary part of plasma frequency in eV, 0.658/RTIME)
   DFIELD  = 0.0000000 0.0000000 0.0000000 field for delta impulse in time
 
 Orbital magnetization related:
   ORBITALMAG=     F  switch on orbital magnetization
   LCHIMAG   =     F  perturbation theory with respect to B field
   DQ        =  0.001000  dq finite difference perturbation B field
   LLRAUG    =     F  two centre corrections for induced B field



--------------------------------------------------------------------------------------------------------


 Static calculation
 charge density and potential will be updated during run
 non-spin polarized calculation
 Conjugate gradient for all bands (Freysoldt, et al. PRB 79, 241103 (2009))
 preconditioned conjugated gradient                                        
 perform sub-space diagonalisation
    before iterative eigenvector-optimisation
 modified Broyden-mixing scheme, WC =      100.0
 initial mixing is a Kerker type mixing with AMIX =  0.4000 and BMIX =      1.0000
 Hartree-type preconditioning will be used
 using additional bands            8
 reciprocal scheme for non local part
 use partial core corrections
 no Harris-corrections to forces 
 use gradient corrections 
 use of overlap-Matrix (Vanderbilt PP)
 Gauss-broadening in eV      SIGMA  =   0.05


--------------------------------------------------------------------------------------------------------


  energy-cutoff  :      500.00
  volume of cell :       62.43
      direct lattice vectors                 reciprocal lattice vectors
     4.593700000  0.000000000  0.000000000     0.217689444  0.000000000  0.000000000
     0.000000000  4.593700000  0.000000000     0.000000000  0.217689444  0.000000000
     0.000000000  0.000000000  2.958700000     0.000000000  0.000000000  0.337986278

  length of vectors
     4.593700000  4.593700000  2.958700000     0.217689444  0.217689444  0.337986278


 
 k-points in units of 2pi/SCALE and weight: Gamma-centered 4x4x6 mesh               
   0.00000000  0.00000000  0.00000000       0.010
   0.05442236  0.00000000  0.00000000       0.042
   0.10884472  0.00000000  0.00000000       0.021
   0.05442236  0.05442236  0.00000000       0.042
   0.10884472  0.05442236  0.00000000       0.042
   0.10884472  0.10884472  0.00000000       0.010
   0.00000000  0.00000000  0.05633105       0.021
   0.05442236  0.00000000  0.05633105       0.083
   0.10884472  0.00000000  0.05633105       0.042
   0.05442236  0.05442236  0.05633105       0.083
   0.10884472  0.05442236  0.05633105       0.083
   0.10884472  0.10884472  0.05633105       0.021
   0.00000000  0.00000000  0.11266209       0.021
   0.05442236  0.00000000  0.11266209       0.083
   0.10884472  0.00000000  0.11266209       0.042
   0.05442236  0.05442236  0.11266209       0.083
   0.10884472  0.05442236  0.11266209       0.083
   0.10884472  0.10884472  0.11266209       0.021
   0.00000000  0.00000000  0.16899314       0.010
   0.05442236  0.00000000  0.16899314       0.042
   0.10884472  0.00000000  0.16899314       0.021
   0.05442236  0.05442236  0.16899314       0.042
   0.10884472  0.05442236  0.16899314       0.042
   0.10884472  0.10884472  0.16899314       0.010
 
 k-points in reciprocal lattice and weights: Gamma-centered 4x4x6 mesh               
   0.00000000  0.00000000  0.00000000       0.010
   0.25000000  0.00000000  0.00000000       0.042
   0.50000000  0.00000000  0.00000000       0.021
   0.25000000  0.25000000  0.00000000       0.042
   0.50000000  0.25000000  0.00000000       0.042
   0.50000000  0.50000000  0.00000000       0.010
   0.00000000  0.00000000  0.16666667       0.021
   0.25000000  0.00000000  0.16666667       0.083
   0.50000000  0.00000000  0.16666667       0.042
   0.25000000  0.25000000  0.16666667       0.083
   0.50000000  0.25000000  0.16666667       0.083
   0.50000000  0.50000000  0.16666667       0.021
   0.00000000  0.00000000  0.33333333       0.021
   0.25000000  0.00000000  0.33333333       0.083
   0.50000000  0.00000000  0.33333333       0.042
   0.25000000  0.25000000  0.33333333       0.083
   0.50000000  0.25000000  0.33333333       0.083
   0.50000000  0.50000000  0.33333333       0.021
   0.00000000  0.00000000  0.50000000       0.010
   0.25000000  0.00000000  0.50000000       0.042
   0.50000000  0.00000000  0.50000000       0.021
   0.25000000  0.25000000  0.50000000       0.042
   0.50000000  0.25000000  0.50000000       0.042
   0.50000000  0.50000000  0.50000000       0.010
 
 position of ions in fractional coordinates (direct lattice) 
   0.00000000  0.00000000  0.00000000
   0.50000000  0.50000000  0.50000000
   0.30478000  0.30478000  0.00000000
   0.69522000  0.69522000  0.00000000
   0.80478000  0.19522000  0.50000000
   0.19522000  0.80478000  0.50000000
 
 position of ions in cartesian coordinates  (Angst):
   0.00000000  0.00000000  0.00000000
   2.29685000  2.29685000  1.47935000
   1.40006789  1.40006789  0.00000000
   3.19363211  3.19363211  0.00000000
   3.69691789  0.89678211  1.47935000
   0.89678211  3.69691789  1.47935000
 


--------------------------------------------------------------------------------------------------------


 k-point  1 :   0.0000 0.0000 0.0000  plane waves:    1559
 k-point  2 :   0.2500 0.0000 0.0000  plane waves:    1589
 k-point  3 :   0.5000 0.0000 0.0000  plane waves:    1612
 k-point  4 :   0.2500 0.2500 0.0000  plane waves:    1582
 k-point  5 :   0.5000 0.2500 0.0000  plane waves:    1606
 k-point  6 :   0.5000 0.5000 0.0000  plane waves:    1568
 k-point  7 :   0.0000 0.0000 0.1667  plane waves:    1603
 k-point  8 :   0.2500 0.0000 0.1667  plane waves:    1586
 k-point  9 :   0.5000 0.0000 0.1667  plane waves:    1590
 k-point 10 :   0.2500 0.2500 0.1667  plane waves:    1592
 k-point 11 :   0.5000 0.2500 0.1667  plane waves:    1594
 k-point 12 :   0.5000 0.5000 0.1667  plane waves:    1584
 k-point 13 :   0.0000 0.0000 0.3333  plane waves:    1591
 k-point 14 :   0.2500 0.0000 0.3333  plane waves:    1594
 k-point 15 :   0.5000 0.0000 0.3333  plane waves:    1580
 k-point 16 :   0.2500 0.2500 0.3333  plane waves:    1576
 k-point 17 :   0.5000 0.2500 0.3333  plane waves:    1578
 k-point 18 :   0.5000 0.5000 0.3333  plane waves:    1588
 k-point 19 :   0.0000 0.0000 0.5000  plane waves:    1586
 k-point 20 :   0.2500 0.0000 0.5000  plane waves:    1604
 k-point 21 :   0.5000 0.0000 0.5000  plane waves:    1568
 k-point 22 :   0.2500 0.2500 0.5000  plane waves:    1570
 k-point 23 :   0.5000 0.2500 0.5000  plane waves:    1568
 k-point 24 :   0.5000 0.5000 0.5000  plane waves:    1576

 maximum and minimum number of plane-waves per node :      1612     1559

 maximum number of plane-waves:      1612
 maximum index in each direction: 
   IXMAX=    8   IYMAX=    8   IZMAX=    5
   IXMIN=   -8   IYMIN=   -8   IZMIN=   -5


 serial   3D FFT for wavefunctions
 parallel 3D FFT for charge:
    minimum data exchange during FFTs selected (reduces bandwidth)


 FFT grid for exact exchange (Hartree Fock) 
  NGX = 18; NGY = 18; NGZ = 12

 
 Radii for the augmentation spheres in the non-local exchange
 for species   1 augmentation radius   1.404 (default was   1.040)
       energy cutoff for augmentation   2000.0
 for species   2 augmentation radius   0.974 (default was   0.722)
       energy cutoff for augmentation   2000.0
 Maximum index for augmentation-charges in exchange          739
  SETUP_FOCK is finished

 total amount of memory used by VASP MPI-rank0    48917. kBytes
=======================================================================

   base      :      30000. kBytes
   nonl-proj :      11324. kBytes
   fftplans  :        728. kBytes
   grid      :       2261. kBytes
   one-center:         93. kBytes
   HF        :        129. kBytes
   nonlr-proj:        476. kBytes
   wavefun   :       3906. kBytes
 
     INWAV:  cpu time    0.0000: real time    0.0001
 Broyden mixing: mesh for mixing (old mesh)
   NGX = 17   NGY = 17   NGZ = 11
  (NGX  = 72   NGY  = 72   NGZ  = 48)
  gives a total of   3179 points

 initial charge density was supplied:
 charge density of overlapping atoms calculated
 number of electron      48.0000000 magnetization 
 keeping initial charge density in first step


--------------------------------------------------------------------------------------------------------


 Maximum index for augmentation-charges         1559 (set IRDMAX)


--------------------------------------------------------------------------------------------------------


 First call to EWALD:  gamma=   0.447
 Maximum number of real-space cells 2x 2x 4
 Maximum number of reciprocal cells 3x 3x 2

    FEWALD:  cpu time    0.0003: real time    0.0003


--------------------------------------- Iteration      1(   1)  ---------------------------------------


    POTLOK:  cpu time    0.0164: real time    0.0171
    SETDIJ:  cpu time    0.0427: real time    0.0428
    TRIAL :  cpu time    0.1105: real time    0.1198
    CORREC:  cpu time    0.0001: real time    0.0001
    --------------------------------------------
      LOOP:  cpu time    0.1705: real time    0.1808

 eigenvalue-minimisations  :  1536
 total energy-change (2. order) : 0.6166268E+03  (-0.2695304E+04)
 number of electron      48.0000000 magnetization 
 augmentation part       48.0000000 magnetization 

 Free energy of the ion-electron system (eV)
  ---------------------------------------------------
  alpha Z        PSCENC =       198.61100991
  Ewald energy   TEWEN  =     -3596.18025831
  -Hartree energ DENC   =     -1255.84276384
  -exchange      EXHF   =         0.00000000
  -V(xc)+E(xc)   XCENC  =       180.44717269
  PAW double counting   =      3967.53869728    -3920.28125781
  entropy T*S    EENTRO =        -0.00275707
  eigenvalues    EBANDS =       156.46916194
  atomic energy  EATOM  =      4885.86776020
  ---------------------------------------------------
  free energy    TOTEN  =       616.62676499 eV

  energy without entropy =      616.62952206  energy(sigma->0) =      616.62814352
  exchange ACFDT corr.  =         0.00000000  see jH, gK, PRB 81, 115126


--------------------------------------------------------------------------------------------------------




--------------------------------------- Iteration      1(   2)  ---------------------------------------


    TRIAL :  cpu time    0.1271: real time    0.1274
    CORREC:  cpu time    0.0000: real time    0.0000
    --------------------------------------------
      LOOP:  cpu time    0.1273: real time    0.1277

 eigenvalue-minimisations  :  1968
 total energy-change (2. order) :-0.5149273E+03  (-0.5080341E+03)
 number of electron      48.0000000 magnetization 
 augmentation part       48.0000000 magnetization 

 Free energy of the ion-electron system (eV)
  ---------------------------------------------------
  alpha Z        PSCENC =       198.61100991
  Ewald energy   TEWEN  =     -3596.18025831
  -Hartree energ DENC   =     -1255.84276384
  -exchange      EXHF   =         0.00000000
  -V(xc)+E(xc)   XCENC  =       180.44717269
  PAW double counting   =      3967.53869728    -3920.28125781
  entropy T*S    EENTRO =        -0.00000000
  eigenvalues    EBANDS =      -358.46091028
  atomic energy  EATOM  =      4885.86776020
  ---------------------------------------------------
  free energy    TOTEN  =       101.69944984 eV

  energy without entropy =      101.69944984  energy(sigma->0) =      101.69944984
  exchange ACFDT corr.  =         0.00000000  see jH, gK, PRB 81, 115126


--------------------------------------------------------------------------------------------------------




--------------------------------------- Iteration      1(   3)  ---------------------------------------


    TRIAL :  cpu time    0.1614: real time    0.1620
    CORREC:  cpu time    0.0000: real time    0.0000
    --------------------------------------------
      LOOP:  cpu time    0.1615: real time    0.1621

 eigenvalue-minimisations  :  2448
 total energy-change (2. order) :-0.3318700E+02  (-0.3315313E+02)
 number of electron      48.0000000 magnetization 
 augmentation part       48.0000000 magnetization 

 Free energy of the ion-electron system (eV)
  ---------------------------------------------------
  alpha Z        PSCENC =       198.61100991
  Ewald energy   TEWEN  =     -3596.18025831
  -Hartree energ DENC   =     -1255.84276384
  -exchange      EXHF   =         0.00000000
  -V(xc)+E(xc)   XCENC  =       180.44717269
  PAW double counting   =      3967.53869728    -3920.28125781
  entropy T*S    EENTRO =        -0.00000000
  eigenvalues    EBANDS =      -391.64791145
  atomic energy  EATOM  =      4885.86776020
  ---------------------------------------------------
  free energy    TOTEN  =        68.51244867 eV

  energy without entropy =       68.51244867  energy(sigma->0) =       68.51244867
  exchange ACFDT corr.  =         0.00000000  see jH, gK, PRB 81, 115126


--------------------------------------------------------------------------------------------------------




--------------------------------------- Iteration      1(   4)  ---------------------------------------


    TRIAL :  cpu time    0.1359: real time    0.1363
    CORREC:  cpu time    0.0000: real time    0.0000
    --------------------------------------------
      LOOP:  cpu time    0.1361: real time    0.1364

 eigenvalue-minimisations  :  2096
 total energy-change (2. order) :-0.6698898E+00  (-0.6696937E+00)
 number of electron      48.0000000 magnetization 
 augmentation part       48.0000000 magnetization 

 Free energy of the ion-electron system (eV)
  ---------------------------------------------------
  alpha Z        PSCENC =       198.61100991
  Ewald energy   TEWEN  =     -3596.18025831
  -Hartree energ DENC   =     -1255.84276384
  -exchange      EXHF   =         0.00000000
  -V(xc)+E(xc)   XCENC  =       180.44717269
  PAW double counting   =      3967.53869728    -3920.28125781
  entropy T*S    EENTRO =        -0.00000000
  eigenvalues    EBANDS =      -392.31780128
  atomic energy  EATOM  =      4885.86776020
  ---------------------------------------------------
  free energy    TOTEN  =        67.84255884 eV

  energy without entropy =       67.84255884  energy(sigma->0) =       67.84255884
  exchange ACFDT corr.  =         0.00000000  see jH, gK, PRB 81, 115126


--------------------------------------------------------------------------------------------------------




--------------------------------------- Iteration      1(   5)  ---------------------------------------


    TRIAL :  cpu time    0.1360: real time    0.1361
    CORREC:  cpu time    0.0000: real time    0.0000
    CHARGE:  cpu time    0.0199: real time    0.0199
    --------------------------------------------
      LOOP:  cpu time    0.1560: real time    0.1562

 eigenvalue-minimisations  :  2128
 total energy-change (2. order) :-0.2143868E-01  (-0.2143837E-01)
 number of electron      48.0000024 magnetization 
 augmentation part        9.7032481 magnetization 

 Free energy of the ion-electron system (eV)
  ---------------------------------------------------
  alpha Z        PSCENC =       198.61100991
  Ewald energy   TEWEN  =     -3596.18025831
  -Hartree energ DENC   =     -1255.84276384
  -exchange      EXHF   =         0.00000000
  -V(xc)+E(xc)   XCENC  =       180.44717269
  PAW double counting   =      3967.53869728    -3920.28125781
  entropy T*S    EENTRO =        -0.00000000
  eigenvalues    EBANDS =      -392.33923996
  atomic energy  EATOM  =      4885.86776020
  ---------------------------------------------------
  free energy    TOTEN  =        67.82112016 eV

  energy without entropy =       67.82112016  energy(sigma->0) =       67.82112016
  exchange ACFDT corr.  =         0.00000000  see jH, gK, PRB 81, 115126


--------------------------------------------------------------------------------------------------------




--------------------------------------- Iteration      1(   6)  ---------------------------------------


    POTLOK:  cpu time    0.0137: real time    0.0137
    SETDIJ:  cpu time    0.0395: real time    0.0395
    TRIAL :  cpu time   11.0196: real time   11.0298
    CORREC:  cpu time   11.0195: real time   11.0267
    CHARGE:  cpu time    0.0198: real time    0.0198
    --------------------------------------------
      LOOP:  cpu time   22.1123: real time   22.1297

 eigenvalue-minimisations  :     0
 total energy-change (2. order) :-0.1134690E+03  (-0.1486607E+02)
 number of electron      48.0000024 magnetization 
 augmentation part       10.2759495 magnetization 

 Free energy of the ion-electron system (eV)
  ---------------------------------------------------
  alpha Z        PSCENC =       198.61100991
  Ewald energy   TEWEN  =     -3596.18025831
  -Hartree energ DENC   =     -1131.50066931
  -exchange      EXHF   =       152.41531064
  -V(xc)+E(xc)   XCENC  =       179.51188480
  PAW double counting   =      5815.46341150    -5788.10528040
  entropy T*S    EENTRO =        -0.00000000
  eigenvalues    EBANDS =      -761.73100873
  atomic energy  EATOM  =      4885.86776020
  ---------------------------------------------------
  free energy    TOTEN  =       -45.64783969 eV

  energy without entropy =      -45.64783969  energy(sigma->0) =      -45.64783969
  exchange ACFDT corr.  =        -0.00000000  see jH, gK, PRB 81, 115126


--------------------------------------------------------------------------------------------------------




--------------------------------------- Iteration      1(   7)  ---------------------------------------


    POTLOK:  cpu time    0.0138: real time    0.0138
    SETDIJ:  cpu time    0.0395: real time    0.0395
    TRIAL :  cpu time   11.0507: real time   11.0577
    CORREC:  cpu time   11.0314: real time   11.0382
    CHARGE:  cpu time    0.0197: real time    0.0197
    --------------------------------------------
      LOOP:  cpu time   22.1551: real time   22.1690

 eigenvalue-minimisations  :     0
 total energy-change (2. order) :-0.1476663E+02  (-0.3989114E+01)
 number of electron      48.0000022 magnetization 
 augmentation part        9.7823722 magnetization 

 Free energy of the ion-electron system (eV)
  ---------------------------------------------------
  alpha Z        PSCENC =       198.61100991
  Ewald energy   TEWEN  =     -3596.18025831
  -Hartree energ DENC   =     -1178.40763794
  -exchange      EXHF   =       151.48758242
  -V(xc)+E(xc)   XCENC  =       180.41922473
  PAW double counting   =      5598.33784329    -5567.05753506
  entropy T*S    EENTRO =        -0.00000000
  eigenvalues    EBANDS =      -733.49245481
  atomic energy  EATOM  =      4885.86776020
  ---------------------------------------------------
  free energy    TOTEN  =       -60.41446557 eV

  energy without entropy =      -60.41446557  energy(sigma->0) =      -60.41446557
  exchange ACFDT corr.  =        -0.00000000  see jH, gK, PRB 81, 115126


--------------------------------------------------------------------------------------------------------




--------------------------------------- Iteration      1(   8)  ---------------------------------------


    POTLOK:  cpu time    0.0154: real time    0.0154
    SETDIJ:  cpu time    0.0414: real time    0.0414
    TRIAL :  cpu time   11.0062: real time   11.0145
    CORREC:  cpu time   11.0576: real time   11.0645
    CHARGE:  cpu time    0.0198: real time    0.0198
    --------------------------------------------
      LOOP:  cpu time   22.1411: real time   22.1593

 eigenvalue-minimisations  :     0
 total energy-change (2. order) :-0.3836589E+01  (-0.1386061E+01)
 number of electron      48.0000021 magnetization 
 augmentation part        9.4474113 magnetization 

 Free energy of the ion-electron system (eV)
  ---------------------------------------------------
  alpha Z        PSCENC =       198.61100991
  Ewald energy   TEWEN  =     -3596.18025831
  -Hartree energ DENC   =     -1190.98520276
  -exchange      EXHF   =       148.87701347
  -V(xc)+E(xc)   XCENC  =       179.69517495
  PAW double counting   =      5408.30966295    -5367.14466680
  entropy T*S    EENTRO =        -0.00000000
  eigenvalues    EBANDS =      -731.30154830
  atomic energy  EATOM  =      4885.86776020
  ---------------------------------------------------
  free energy    TOTEN  =       -64.25105471 eV

  energy without entropy =      -64.25105471  energy(sigma->0) =      -64.25105471
  exchange ACFDT corr.  =         0.00000000  see jH, gK, PRB 81, 115126


--------------------------------------------------------------------------------------------------------




--------------------------------------- Iteration      1(   9)  ---------------------------------------


    POTLOK:  cpu time    0.0140: real time    0.0140
    SETDIJ:  cpu time    0.0393: real time    0.0393
    TRIAL :  cpu time   11.0037: real time   11.0108
    CORREC:  cpu time   11.0325: real time   11.0394
    CHARGE:  cpu time    0.0197: real time    0.0197
    --------------------------------------------
      LOOP:  cpu time   22.1093: real time   22.1237

 eigenvalue-minimisations  :     0
 total energy-change (2. order) :-0.1382032E+01  (-0.4776697E+00)
 number of electron      48.0000022 magnetization 
 augmentation part        9.4222729 magnetization 

 Free energy of the ion-electron system (eV)
  ---------------------------------------------------
  alpha Z        PSCENC =       198.61100991
  Ewald energy   TEWEN  =     -3596.18025831
  -Hartree energ DENC   =     -1213.54880378
  -exchange      EXHF   =       148.98127341
  -V(xc)+E(xc)   XCENC  =       180.42551550
  PAW double counting   =      5448.95657339    -5400.65325569
  entropy T*S    EENTRO =        -0.00000000
  eigenvalues    EBANDS =      -718.09290168
  atomic energy  EATOM  =      4885.86776020
  ---------------------------------------------------
  free energy    TOTEN  =       -65.63308705 eV

  energy without entropy =      -65.63308705  energy(sigma->0) =      -65.63308705
  exchange ACFDT corr.  =         0.00000000  see jH, gK, PRB 81, 115126


--------------------------------------------------------------------------------------------------------




--------------------------------------- Iteration      1(  10)  ---------------------------------------


    POTLOK:  cpu time    0.0138: real time    0.0138
    SETDIJ:  cpu time    0.0397: real time    0.0398
    TRIAL :  cpu time   11.0127: real time   11.0208
    CORREC:  cpu time   11.0448: real time   11.0521
    CHARGE:  cpu time    0.0196: real time    0.0196
    --------------------------------------------
      LOOP:  cpu time   22.1308: real time   22.1462

 eigenvalue-minimisations  :     0
 total energy-change (2. order) :-0.4777458E+00  (-0.1875122E+00)
 number of electron      48.0000022 magnetization 
 augmentation part        9.4219675 magnetization 

 Free energy of the ion-electron system (eV)
  ---------------------------------------------------
  alpha Z        PSCENC =       198.61100991
  Ewald energy   TEWEN  =     -3596.18025831
  -Hartree energ DENC   =     -1227.02845923
  -exchange      EXHF   =       149.62092095
  -V(xc)+E(xc)   XCENC  =       181.10660054
  PAW double counting   =      5578.70625443    -5527.95282063
  entropy T*S    EENTRO =        -0.00000000
  eigenvalues    EBANDS =      -708.86184072
  atomic energy  EATOM  =      4885.86776020
  ---------------------------------------------------
  free energy    TOTEN  =       -66.11083286 eV

  energy without entropy =      -66.11083286  energy(sigma->0) =      -66.11083286
  exchange ACFDT corr.  =         0.00000000  see jH, gK, PRB 81, 115126


--------------------------------------------------------------------------------------------------------




--------------------------------------- Iteration      1(  11)  ---------------------------------------


    POTLOK:  cpu time    0.0164: real time    0.0164
    SETDIJ:  cpu time    0.0407: real time    0.0407
    TRIAL :  cpu time   11.0027: real time   11.0099
    CORREC:  cpu time   11.0294: real time   11.0371
    CHARGE:  cpu time    0.0196: real time    0.0196
    --------------------------------------------
      LOOP:  cpu time   22.1090: real time   22.1269

 eigenvalue-minimisations  :     0
 total energy-change (2. order) :-0.1875086E+00  (-0.5685001E-01)
 number of electron      48.0000021 magnetization 
 augmentation part        9.3866170 magnetization 

 Free energy of the ion-electron system (eV)
  ---------------------------------------------------
  alpha Z        PSCENC =       198.61100991
  Ewald energy   TEWEN  =     -3596.18025831
  -Hartree energ DENC   =     -1227.23883262
  -exchange      EXHF   =       149.64782710
  -V(xc)+E(xc)   XCENC  =       181.14812432
  PAW double counting   =      5700.56280334    -5648.90085950
  entropy T*S    EENTRO =        -0.00000000
  eigenvalues    EBANDS =      -709.81591587
  atomic energy  EATOM  =      4885.86776020
  ---------------------------------------------------
  free energy    TOTEN  =       -66.29834143 eV

  energy without entropy =      -66.29834143  energy(sigma->0) =      -66.29834143
  exchange ACFDT corr.  =        -0.00000000  see jH, gK, PRB 81, 115126


--------------------------------------------------------------------------------------------------------




--------------------------------------- Iteration      1(  12)  ---------------------------------------


    POTLOK:  cpu time    0.0142: real time    0.0142
    SETDIJ:  cpu time    0.0394: real time    0.0394
    TRIAL :  cpu time   11.0107: real time   11.0178
    CORREC:  cpu time   11.0405: real time   11.0484
    CHARGE:  cpu time    0.0197: real time    0.0197
    --------------------------------------------
      LOOP:  cpu time   22.1247: real time   22.1401

 eigenvalue-minimisations  :     0
 total energy-change (2. order) :-0.5685382E-01  (-0.2523595E-01)
 number of electron      48.0000021 magnetization 
 augmentation part        9.3527811 magnetization 

 Free energy of the ion-electron system (eV)
  ---------------------------------------------------
  alpha Z        PSCENC =       198.61100991
  Ewald energy   TEWEN  =     -3596.18025831
  -Hartree energ DENC   =     -1223.39747633
  -exchange      EXHF   =       149.47479268
  -V(xc)+E(xc)   XCENC  =       180.97579747
  PAW double counting   =      5739.53037928    -5687.57879393
  entropy T*S    EENTRO =        -0.00000000
  eigenvalues    EBANDS =      -713.65840623
  atomic energy  EATOM  =      4885.86776020
  ---------------------------------------------------
  free energy    TOTEN  =       -66.35519526 eV

  energy without entropy =      -66.35519526  energy(sigma->0) =      -66.35519526
  exchange ACFDT corr.  =         0.00000000  see jH, gK, PRB 81, 115126


--------------------------------------------------------------------------------------------------------




--------------------------------------- Iteration      1(  13)  ---------------------------------------


    POTLOK:  cpu time    0.0138: real time    0.0138
    SETDIJ:  cpu time    0.0396: real time    0.0397
    TRIAL :  cpu time   11.0161: real time   11.0233
    CORREC:  cpu time   11.0336: real time   11.0406
    CHARGE:  cpu time    0.0196: real time    0.0196
    --------------------------------------------
      LOOP:  cpu time   22.1229: real time   22.1371

 eigenvalue-minimisations  :     0
 total energy-change (2. order) :-0.2527399E-01  (-0.1174502E-01)
 number of electron      48.0000021 magnetization 
 augmentation part        9.3451570 magnetization 

 Free energy of the ion-electron system (eV)
  ---------------------------------------------------
  alpha Z        PSCENC =       198.61100991
  Ewald energy   TEWEN  =     -3596.18025831
  -Hartree energ DENC   =     -1222.90952178
  -exchange      EXHF   =       149.50670233
  -V(xc)+E(xc)   XCENC  =       180.97578150
  PAW double counting   =      5731.40010929    -5679.13503435
  entropy T*S    EENTRO =        -0.00000000
  eigenvalues    EBANDS =      -714.51701804
  atomic energy  EATOM  =      4885.86776020
  ---------------------------------------------------
  free energy    TOTEN  =       -66.38046925 eV

  energy without entropy =      -66.38046925  energy(sigma->0) =      -66.38046925
  exchange ACFDT corr.  =         0.00000000  see jH, gK, PRB 81, 115126


--------------------------------------------------------------------------------------------------------




--------------------------------------- Iteration      1(  14)  ---------------------------------------


    POTLOK:  cpu time    0.0154: real time    0.0154
    SETDIJ:  cpu time    0.0417: real time    0.0417
    TRIAL :  cpu time   11.0052: real time   11.0122
    CORREC:  cpu time   11.0374: real time   11.0444
    CHARGE:  cpu time    0.0196: real time    0.0196
    --------------------------------------------
      LOOP:  cpu time   22.1195: real time   22.1366

 eigenvalue-minimisations  :     0
 total energy-change (2. order) :-0.1175232E-01  (-0.5752479E-02)
 number of electron      48.0000021 magnetization 
 augmentation part        9.3394115 magnetization 

 Free energy of the ion-electron system (eV)
  ---------------------------------------------------
  alpha Z        PSCENC =       198.61100991
  Ewald energy   TEWEN  =     -3596.18025831
  -Hartree energ DENC   =     -1225.09712586
  -exchange      EXHF   =       149.62873653
  -V(xc)+E(xc)   XCENC  =       181.08459105
  PAW double counting   =      5709.16610400    -5656.48724359
  entropy T*S    EENTRO =        -0.00000000
  eigenvalues    EBANDS =      -712.98579550
  atomic energy  EATOM  =      4885.86776020
  ---------------------------------------------------
  free energy    TOTEN  =       -66.39222157 eV

  energy without entropy =      -66.39222157  energy(sigma->0) =      -66.39222157
  exchange ACFDT corr.  =         0.00000000  see jH, gK, PRB 81, 115126


--------------------------------------------------------------------------------------------------------




--------------------------------------- Iteration      1(  15)  ---------------------------------------


    POTLOK:  cpu time    0.0139: real time    0.0139
    SETDIJ:  cpu time    0.0394: real time    0.0394
    TRIAL :  cpu time   11.0164: real time   11.0232
    CORREC:  cpu time   11.0407: real time   11.0477
    CHARGE:  cpu time    0.0197: real time    0.0197
    --------------------------------------------
      LOOP:  cpu time   22.1303: real time   22.1447

 eigenvalue-minimisations  :     0
 total energy-change (2. order) :-0.5751241E-02  (-0.2318554E-02)
 number of electron      48.0000021 magnetization 
 augmentation part        9.3286597 magnetization 

 Free energy of the ion-electron system (eV)
  ---------------------------------------------------
  alpha Z        PSCENC =       198.61100991
  Ewald energy   TEWEN  =     -3596.18025831
  -Hartree energ DENC   =     -1225.65500579
  -exchange      EXHF   =       149.64781319
  -V(xc)+E(xc)   XCENC  =       181.10544752
  PAW double counting   =      5697.18711842    -5644.14395808
  entropy T*S    EENTRO =        -0.00000000
  eigenvalues    EBANDS =      -712.83789985
  atomic energy  EATOM  =      4885.86776020
  ---------------------------------------------------
  free energy    TOTEN  =       -66.39797281 eV

  energy without entropy =      -66.39797281  energy(sigma->0) =      -66.39797281
  exchange ACFDT corr.  =        -0.00000000  see jH, gK, PRB 81, 115126


--------------------------------------------------------------------------------------------------------




--------------------------------------- Iteration      1(  16)  ---------------------------------------


    POTLOK:  cpu time    0.0138: real time    0.0138
    SETDIJ:  cpu time    0.0393: real time    0.0393
    TRIAL :  cpu time   11.0128: real time   11.0199
    CORREC:  cpu time   11.0444: real time   11.0515
    CHARGE:  cpu time    0.0196: real time    0.0196
    --------------------------------------------
      LOOP:  cpu time   22.1300: real time   22.1442

 eigenvalue-minimisations  :     0
 total energy-change (2. order) :-0.2319488E-02  (-0.1063354E-02)
 number of electron      48.0000021 magnetization 
 augmentation part        9.3214030 magnetization 

 Free energy of the ion-electron system (eV)
  ---------------------------------------------------
  alpha Z        PSCENC =       198.61100991
  Ewald energy   TEWEN  =     -3596.18025831
  -Hartree energ DENC   =     -1224.89848797
  -exchange      EXHF   =       149.61467636
  -V(xc)+E(xc)   XCENC  =       181.06884792
  PAW double counting   =      5699.51935944    -5646.29513873
  entropy T*S    EENTRO =        -0.00000000
  eigenvalues    EBANDS =      -713.70806113
  atomic energy  EATOM  =      4885.86776020
  ---------------------------------------------------
  free energy    TOTEN  =       -66.40029230 eV

  energy without entropy =      -66.40029230  energy(sigma->0) =      -66.40029230
  exchange ACFDT corr.  =        -0.00000000  see jH, gK, PRB 81, 115126


--------------------------------------------------------------------------------------------------------




--------------------------------------- Iteration      1(  17)  ---------------------------------------


    POTLOK:  cpu time    0.0167: real time    0.0167
    SETDIJ:  cpu time    0.0415: real time    0.0415
    TRIAL :  cpu time   11.0040: real time   11.0110
    CORREC:  cpu time   11.0280: real time   11.0360
    CHARGE:  cpu time    0.0197: real time    0.0197
    --------------------------------------------
      LOOP:  cpu time   22.1099: real time   22.1280

 eigenvalue-minimisations  :     0
 total energy-change (2. order) :-0.1063581E-02  (-0.5513208E-03)
 number of electron      48.0000021 magnetization 
 augmentation part        9.3199837 magnetization 

 Free energy of the ion-electron system (eV)
  ---------------------------------------------------
  alpha Z        PSCENC =       198.61100991
  Ewald energy   TEWEN  =     -3596.18025831
  -Hartree energ DENC   =     -1224.84714066
  -exchange      EXHF   =       149.61422159
  -V(xc)+E(xc)   XCENC  =       181.06574244
  PAW double counting   =      5705.13758493    -5651.79248203
  entropy T*S    EENTRO =        -0.00000000
  eigenvalues    EBANDS =      -713.87779396
  atomic energy  EATOM  =      4885.86776020
  ---------------------------------------------------
  free energy    TOTEN  =       -66.40135588 eV

  energy without entropy =      -66.40135588  energy(sigma->0) =      -66.40135588
  exchange ACFDT corr.  =        -0.00000000  see jH, gK, PRB 81, 115126


--------------------------------------------------------------------------------------------------------




--------------------------------------- Iteration      1(  18)  ---------------------------------------


    POTLOK:  cpu time    0.0138: real time    0.0138
    SETDIJ:  cpu time    0.0395: real time    0.0399
    TRIAL :  cpu time   11.0022: real time   11.0092
    CORREC:  cpu time   11.0495: real time   11.0565
    CHARGE:  cpu time    0.0196: real time    0.0196
    --------------------------------------------
      LOOP:  cpu time   22.1247: real time   22.1394

 eigenvalue-minimisations  :     0
 total energy-change (2. order) :-0.5496499E-03  (-0.2642348E-03)
 number of electron      48.0000021 magnetization 
 augmentation part        9.3187416 magnetization 

 Free energy of the ion-electron system (eV)
  ---------------------------------------------------
  alpha Z        PSCENC =       198.61100991
  Ewald energy   TEWEN  =     -3596.18025831
  -Hartree energ DENC   =     -1225.34604903
  -exchange      EXHF   =       149.63026075
  -V(xc)+E(xc)   XCENC  =       181.08584134
  PAW double counting   =      5708.68098954    -5655.24151769
  entropy T*S    EENTRO =        -0.00000000
  eigenvalues    EBANDS =      -713.50994224
  atomic energy  EATOM  =      4885.86776020
  ---------------------------------------------------
  free energy    TOTEN  =       -66.40190553 eV

  energy without entropy =      -66.40190553  energy(sigma->0) =      -66.40190553
  exchange ACFDT corr.  =         0.00000000  see jH, gK, PRB 81, 115126


--------------------------------------------------------------------------------------------------------




--------------------------------------- Iteration      1(  19)  ---------------------------------------


    POTLOK:  cpu time    0.0138: real time    0.0138
    SETDIJ:  cpu time    0.0397: real time    0.0397
    TRIAL :  cpu time   11.0174: real time   11.0243
    CORREC:  cpu time   11.0461: real time   11.0530
    CHARGE:  cpu time    0.0196: real time    0.0196
    --------------------------------------------
      LOOP:  cpu time   22.1366: real time   22.1506

 eigenvalue-minimisations  :     0
 total energy-change (2. order) :-0.2640876E-03  (-0.1297439E-03)
 number of electron      48.0000021 magnetization 
 augmentation part        9.3163295 magnetization 

 Free energy of the ion-electron system (eV)
  ---------------------------------------------------
  alpha Z        PSCENC =       198.61100991
  Ewald energy   TEWEN  =     -3596.18025831
  -Hartree energ DENC   =     -1225.52394856
  -exchange      EXHF   =       149.63122935
  -V(xc)+E(xc)   XCENC  =       181.09213205
  PAW double counting   =      5709.97178083    -5656.46874908
  entropy T*S    EENTRO =        -0.00000000
  eigenvalues    EBANDS =      -713.40312601
  atomic energy  EATOM  =      4885.86776020
  ---------------------------------------------------
  free energy    TOTEN  =       -66.40216962 eV

  energy without entropy =      -66.40216962  energy(sigma->0) =      -66.40216962
  exchange ACFDT corr.  =         0.00000000  see jH, gK, PRB 81, 115126


--------------------------------------------------------------------------------------------------------




--------------------------------------- Iteration      1(  20)  ---------------------------------------


    POTLOK:  cpu time    0.0167: real time    0.0167
    SETDIJ:  cpu time    0.0444: real time    0.0444
    TRIAL :  cpu time   11.0180: real time   11.0249
    CORREC:  cpu time   11.0362: real time   11.0431
    CHARGE:  cpu time    0.0196: real time    0.0196
    --------------------------------------------
      LOOP:  cpu time   22.1352: real time   22.1530

 eigenvalue-minimisations  :     0
 total energy-change (2. order) :-0.1300709E-03  (-0.7306035E-04)
 number of electron      48.0000021 magnetization 
 augmentation part        9.3147887 magnetization 

 Free energy of the ion-electron system (eV)
  ---------------------------------------------------
  alpha Z        PSCENC =       198.61100991
  Ewald energy   TEWEN  =     -3596.18025831
  -Hartree energ DENC   =     -1225.40560984
  -exchange      EXHF   =       149.62366924
  -V(xc)+E(xc)   XCENC  =       181.08672871
  PAW double counting   =      5710.35164552    -5656.80992225
  entropy T*S    EENTRO =        -0.00000000
  eigenvalues    EBANDS =      -713.54732286
  atomic energy  EATOM  =      4885.86776020
  ---------------------------------------------------
  free energy    TOTEN  =       -66.40229969 eV

  energy without entropy =      -66.40229969  energy(sigma->0) =      -66.40229969
  exchange ACFDT corr.  =         0.00000000  see jH, gK, PRB 81, 115126


--------------------------------------------------------------------------------------------------------




--------------------------------------- Iteration      1(  21)  ---------------------------------------


    POTLOK:  cpu time    0.0139: real time    0.0139
    SETDIJ:  cpu time    0.0394: real time    0.0394
    TRIAL :  cpu time   11.0011: real time   11.0083
    CORREC:  cpu time   11.0427: real time   11.0500
    CHARGE:  cpu time    0.0196: real time    0.0196
    --------------------------------------------
      LOOP:  cpu time   22.1168: real time   22.1317

 eigenvalue-minimisations  :     0
 total energy-change (2. order) :-0.7328316E-04  (-0.4439975E-04)
 number of electron      48.0000021 magnetization 
 augmentation part        9.3145393 magnetization 

 Free energy of the ion-electron system (eV)
  ---------------------------------------------------
  alpha Z        PSCENC =       198.61100991
  Ewald energy   TEWEN  =     -3596.18025831
  -Hartree energ DENC   =     -1225.36050127
  -exchange      EXHF   =       149.62104457
  -V(xc)+E(xc)   XCENC  =       181.08472935
  PAW double counting   =      5710.45057962    -5656.88190758
  entropy T*S    EENTRO =        -0.00000000
  eigenvalues    EBANDS =      -713.61482946
  atomic energy  EATOM  =      4885.86776020
  ---------------------------------------------------
  free energy    TOTEN  =       -66.40237297 eV

  energy without entropy =      -66.40237297  energy(sigma->0) =      -66.40237297
  exchange ACFDT corr.  =         0.00000000  see jH, gK, PRB 81, 115126


--------------------------------------------------------------------------------------------------------




--------------------------------------- Iteration      1(  22)  ---------------------------------------


    POTLOK:  cpu time    0.0138: real time    0.0138
    SETDIJ:  cpu time    0.0392: real time    0.0392
    TRIAL :  cpu time   10.9951: real time   11.0032
    CORREC:  cpu time   11.0338: real time   11.0408
    CHARGE:  cpu time    0.0197: real time    0.0197
    --------------------------------------------
      LOOP:  cpu time   22.1017: real time   22.1168

 eigenvalue-minimisations  :     0
 total energy-change (2. order) :-0.4359319E-04  (-0.2519298E-04)
 number of electron      48.0000021 magnetization 
 augmentation part        9.3140845 magnetization 

 Free energy of the ion-electron system (eV)
  ---------------------------------------------------
  alpha Z        PSCENC =       198.61100991
  Ewald energy   TEWEN  =     -3596.18025831
  -Hartree energ DENC   =     -1225.44910346
  -exchange      EXHF   =       149.62446582
  -V(xc)+E(xc)   XCENC  =       181.08840108
  PAW double counting   =      5710.59596859    -5657.00873199
  entropy T*S    EENTRO =        -0.00000000
  eigenvalues    EBANDS =      -713.55192841
  atomic energy  EATOM  =      4885.86776020
  ---------------------------------------------------
  free energy    TOTEN  =       -66.40241657 eV

  energy without entropy =      -66.40241657  energy(sigma->0) =      -66.40241657
  exchange ACFDT corr.  =         0.00000000  see jH, gK, PRB 81, 115126


--------------------------------------------------------------------------------------------------------




--------------------------------------- Iteration      1(  23)  ---------------------------------------


    POTLOK:  cpu time    0.0173: real time    0.0173
    SETDIJ:  cpu time    0.0424: real time    0.0424
    TRIAL :  cpu time   11.0077: real time   11.0149
    CORREC:  cpu time   11.0454: real time   11.0523
    CHARGE:  cpu time    0.0197: real time    0.0197
    --------------------------------------------
      LOOP:  cpu time   22.1327: real time   22.1502

 eigenvalue-minimisations  :     0
 total energy-change (2. order) :-0.2502882E-04  (-0.1350400E-04)
 number of electron      48.0000021 magnetization 
 augmentation part        9.3134673 magnetization 

 Free energy of the ion-electron system (eV)
  ---------------------------------------------------
  alpha Z        PSCENC =       198.61100991
  Ewald energy   TEWEN  =     -3596.18025831
  -Hartree energ DENC   =     -1225.46699668
  -exchange      EXHF   =       149.62589884
  -V(xc)+E(xc)   XCENC  =       181.08931765
  PAW double counting   =      5710.89257736    -5657.29573932
  entropy T*S    EENTRO =        -0.00000000
  eigenvalues    EBANDS =      -713.54601124
  atomic energy  EATOM  =      4885.86776020
  ---------------------------------------------------
  free energy    TOTEN  =       -66.40244159 eV

  energy without entropy =      -66.40244159  energy(sigma->0) =      -66.40244159
  exchange ACFDT corr.  =         0.00000000  see jH, gK, PRB 81, 115126


--------------------------------------------------------------------------------------------------------




--------------------------------------- Iteration      1(  24)  ---------------------------------------


    POTLOK:  cpu time    0.0139: real time    0.0139
    SETDIJ:  cpu time    0.0400: real time    0.0400
    TRIAL :  cpu time   11.0128: real time   11.0200
    CORREC:  cpu time   11.0268: real time   11.0337
    CHARGE:  cpu time    0.0196: real time    0.0196
    --------------------------------------------
      LOOP:  cpu time   22.1134: real time   22.1278

 eigenvalue-minimisations  :     0
 total energy-change (2. order) :-0.1355304E-04  (-0.8557163E-05)
 number of electron      48.0000021 magnetization 
 augmentation part        9.3132410 magnetization 

 Free energy of the ion-electron system (eV)
  ---------------------------------------------------
  alpha Z        PSCENC =       198.61100991
  Ewald energy   TEWEN  =     -3596.18025831
  -Hartree energ DENC   =     -1225.43046546
  -exchange      EXHF   =       149.62486375
  -V(xc)+E(xc)   XCENC  =       181.08786765
  PAW double counting   =      5711.07029878    -5657.46808936
  entropy T*S    EENTRO =        -0.00000000
  eigenvalues    EBANDS =      -713.58544230
  atomic energy  EATOM  =      4885.86776020
  ---------------------------------------------------
  free energy    TOTEN  =       -66.40245515 eV

  energy without entropy =      -66.40245515  energy(sigma->0) =      -66.40245515
  exchange ACFDT corr.  =        -0.00000000  see jH, gK, PRB 81, 115126


--------------------------------------------------------------------------------------------------------




--------------------------------------- Iteration      1(  25)  ---------------------------------------


    POTLOK:  cpu time    0.0138: real time    0.0138
    SETDIJ:  cpu time    0.0394: real time    0.0398
    TRIAL :  cpu time   11.0350: real time   11.0421
    CORREC:  cpu time   11.0558: real time   11.0626
    CHARGE:  cpu time    0.0197: real time    0.0197
    --------------------------------------------
      LOOP:  cpu time   22.1637: real time   22.1781

 eigenvalue-minimisations  :     0
 total energy-change (2. order) :-0.8604952E-05  (-0.5545190E-05)
 number of electron      48.0000021 magnetization 
 augmentation part        9.3132146 magnetization 

 Free energy of the ion-electron system (eV)
  ---------------------------------------------------
  alpha Z        PSCENC =       198.61100991
  Ewald energy   TEWEN  =     -3596.18025831
  -Hartree energ DENC   =     -1225.43002796
  -exchange      EXHF   =       149.62453630
  -V(xc)+E(xc)   XCENC  =       181.08776101
  PAW double counting   =      5711.04299775    -5657.43512660
  entropy T*S    EENTRO =        -0.00000000
  eigenvalues    EBANDS =      -713.59111606
  atomic energy  EATOM  =      4885.86776020
  ---------------------------------------------------
  free energy    TOTEN  =       -66.40246375 eV

  energy without entropy =      -66.40246375  energy(sigma->0) =      -66.40246375
  exchange ACFDT corr.  =        -0.00000000  see jH, gK, PRB 81, 115126


--------------------------------------------------------------------------------------------------------




--------------------------------------- Iteration      1(  26)  ---------------------------------------


    POTLOK:  cpu time    0.0161: real time    0.0161
    SETDIJ:  cpu time    0.0412: real time    0.0412
    TRIAL :  cpu time   11.0086: real time   11.0157
    CORREC:  cpu time   11.0364: real time   11.0443
    CHARGE:  cpu time    0.0196: real time    0.0196
    --------------------------------------------
      LOOP:  cpu time   22.1221: real time   22.1400

 eigenvalue-minimisations  :     0
 total energy-change (2. order) :-0.5451399E-05  (-0.3205350E-05)
 number of electron      48.0000021 magnetization 
 augmentation part        9.3130791 magnetization 

 Free energy of the ion-electron system (eV)
  ---------------------------------------------------
  alpha Z        PSCENC =       198.61100991
  Ewald energy   TEWEN  =     -3596.18025831
  -Hartree energ DENC   =     -1225.46089011
  -exchange      EXHF   =       149.62537832
  -V(xc)+E(xc)   XCENC  =       181.08899985
  PAW double counting   =      5710.96077119    -5657.34651293
  entropy T*S    EENTRO =        -0.00000000
  eigenvalues    EBANDS =      -713.56872732
  atomic energy  EATOM  =      4885.86776020
  ---------------------------------------------------
  free energy    TOTEN  =       -66.40246920 eV

  energy without entropy =      -66.40246920  energy(sigma->0) =      -66.40246920
  exchange ACFDT corr.  =         0.00000000  see jH, gK, PRB 81, 115126


--------------------------------------------------------------------------------------------------------




--------------------------------------- Iteration      1(  27)  ---------------------------------------


    POTLOK:  cpu time    0.0139: real time    0.0139
    SETDIJ:  cpu time    0.0393: real time    0.0393
    TRIAL :  cpu time   11.0077: real time   11.0148
    CORREC:  cpu time   11.0391: real time   11.0461
    CHARGE:  cpu time    0.0196: real time    0.0196
    --------------------------------------------
      LOOP:  cpu time   22.1198: real time   22.1344

 eigenvalue-minimisations  :     0
 total energy-change (2. order) :-0.3202981E-05  (-0.2535260E-05)
 number of electron      48.0000021 magnetization 
 augmentation part        9.3128430 magnetization 

 Free energy of the ion-electron system (eV)
  ---------------------------------------------------
  alpha Z        PSCENC =       198.61100991
  Ewald energy   TEWEN  =     -3596.18025831
  -Hartree energ DENC   =     -1225.47101353
  -exchange      EXHF   =       149.62567236
  -V(xc)+E(xc)   XCENC  =       181.08943244
  PAW double counting   =      5710.97419763    -5657.35541277
  entropy T*S    EENTRO =        -0.00000000
  eigenvalues    EBANDS =      -713.56386034
  atomic energy  EATOM  =      4885.86776020
  ---------------------------------------------------
  free energy    TOTEN  =       -66.40247241 eV

  energy without entropy =      -66.40247241  energy(sigma->0) =      -66.40247241
  exchange ACFDT corr.  =         0.00000000  see jH, gK, PRB 81, 115126


--------------------------------------------------------------------------------------------------------




--------------------------------------- Iteration      1(  28)  ---------------------------------------


    POTLOK:  cpu time    0.0138: real time    0.0138
    SETDIJ:  cpu time    0.0393: real time    0.0393
    TRIAL :  cpu time   11.0146: real time   11.0216
    CORREC:  cpu time   11.0506: real time   11.0577
    CHARGE:  cpu time    0.0196: real time    0.0196
    --------------------------------------------
      LOOP:  cpu time   22.1380: real time   22.1522

 eigenvalue-minimisations  :     0
 total energy-change (2. order) :-0.2533546E-05  (-0.1787045E-05)
 number of electron      48.0000021 magnetization 
 augmentation part        9.3127265 magnetization 

 Free energy of the ion-electron system (eV)
  ---------------------------------------------------
  alpha Z        PSCENC =       198.61100991
  Ewald energy   TEWEN  =     -3596.18025831
  -Hartree energ DENC   =     -1225.46314140
  -exchange      EXHF   =       149.62528825
  -V(xc)+E(xc)   XCENC  =       181.08907530
  PAW double counting   =      5711.06549223    -5657.44306785
  entropy T*S    EENTRO =        -0.00000000
  eigenvalues    EBANDS =      -713.57463327
  atomic energy  EATOM  =      4885.86776020
  ---------------------------------------------------
  free energy    TOTEN  =       -66.40247494 eV

  energy without entropy =      -66.40247494  energy(sigma->0) =      -66.40247494
  exchange ACFDT corr.  =         0.00000000  see jH, gK, PRB 81, 115126


--------------------------------------------------------------------------------------------------------




--------------------------------------- Iteration      1(  29)  ---------------------------------------


    POTLOK:  cpu time    0.0155: real time    0.0155
    SETDIJ:  cpu time    0.0410: real time    0.0410
    TRIAL :  cpu time   10.9951: real time   11.0021
    CORREC:  cpu time   11.0389: real time   11.0459
    CHARGE:  cpu time    0.0197: real time    0.0197
    --------------------------------------------
      LOOP:  cpu time   22.1104: real time   22.1274

 eigenvalue-minimisations  :     0
 total energy-change (2. order) :-0.1807615E-05  (-0.1283424E-05)
 number of electron      48.0000021 magnetization 
 augmentation part        9.3126953 magnetization 

 Free energy of the ion-electron system (eV)
  ---------------------------------------------------
  alpha Z        PSCENC =       198.61100991
  Ewald energy   TEWEN  =     -3596.18025831
  -Hartree energ DENC   =     -1225.46046751
  -exchange      EXHF   =       149.62498893
  -V(xc)+E(xc)   XCENC  =       181.08888196
  PAW double counting   =      5711.14885279    -5657.52358771
  entropy T*S    EENTRO =        -0.00000000
  eigenvalues    EBANDS =      -713.57965702
  atomic energy  EATOM  =      4885.86776020
  ---------------------------------------------------
  free energy    TOTEN  =       -66.40247675 eV

  energy without entropy =      -66.40247675  energy(sigma->0) =      -66.40247675
  exchange ACFDT corr.  =         0.00000000  see jH, gK, PRB 81, 115126


--------------------------------------------------------------------------------------------------------




--------------------------------------- Iteration      1(  30)  ---------------------------------------


    POTLOK:  cpu time    0.0138: real time    0.0138
    SETDIJ:  cpu time    0.0395: real time    0.0395
    TRIAL :  cpu time   11.0110: real time   11.0180
    CORREC:  cpu time   11.0514: real time   11.0583
    CHARGE:  cpu time    0.0196: real time    0.0196
    --------------------------------------------
      LOOP:  cpu time   22.1354: real time   22.1496

 eigenvalue-minimisations  :     0
 total energy-change (2. order) :-0.1278126E-05  (-0.9008367E-06)
 number of electron      48.0000021 magnetization 
 augmentation part        9.3126249 magnetization 

 Free energy of the ion-electron system (eV)
  ---------------------------------------------------
  alpha Z        PSCENC =       198.61100991
  Ewald energy   TEWEN  =     -3596.18025831
  -Hartree energ DENC   =     -1225.46997640
  -exchange      EXHF   =       149.62526344
  -V(xc)+E(xc)   XCENC  =       181.08926877
  PAW double counting   =      5711.17899514    -5657.55095853
  entropy T*S    EENTRO =        -0.00000000
  eigenvalues    EBANDS =      -713.57358224
  atomic energy  EATOM  =      4885.86776020
  ---------------------------------------------------
  free energy    TOTEN  =       -66.40247803 eV

  energy without entropy =      -66.40247803  energy(sigma->0) =      -66.40247803
  exchange ACFDT corr.  =        -0.00000000  see jH, gK, PRB 81, 115126


--------------------------------------------------------------------------------------------------------




--------------------------------------- Iteration      1(  31)  ---------------------------------------


    POTLOK:  cpu time    0.0138: real time    0.0138
    SETDIJ:  cpu time    0.0393: real time    0.0393
    TRIAL :  cpu time   11.0101: real time   11.0171
    CORREC:  cpu time   11.0358: real time   11.0443
    EDDIAG:  cpu time   10.9676: real time   10.9744
    CHARGE:  cpu time    0.0197: real time    0.0197
    --------------------------------------------
      LOOP:  cpu time   33.0865: real time   33.1087

 eigenvalue-minimisations  :     0
 total energy-change (2. order) :-0.8763573E-06  (-0.5663560E-06)
 number of electron      48.0000021 magnetization 
 augmentation part        9.3125225 magnetization 

 Free energy of the ion-electron system (eV)
  ---------------------------------------------------
  alpha Z        PSCENC =       198.61100991
  Ewald energy   TEWEN  =     -3596.18025831
  -Hartree energ DENC   =     -1225.47863103
  -exchange      EXHF   =       149.62551170
  -V(xc)+E(xc)   XCENC  =       181.08968087
  PAW double counting   =      5711.18106910    -5657.55016759
  entropy T*S    EENTRO =        -0.00000000
  eigenvalues    EBANDS =      -713.56855679
  atomic energy  EATOM  =      4885.86776020
  ---------------------------------------------------
  free energy    TOTEN  =       -66.40247890 eV

  energy without entropy =      -66.40247890  energy(sigma->0) =      -66.40247890
  exchange ACFDT corr.  =         0.00000000  see jH, gK, PRB 81, 115126


--------------------------------------------------------------------------------------------------------


  average scaling for gradient   0.7378


 average (electrostatic) potential at core
  the test charge radii are     1.0397  0.7215
  (the norm of the test charge is              1.0000)
       1 -71.4365       2 -71.4365       3 -62.9350       4 -62.9350       5 -62.9350
       6 -62.9350
 
 
 
 E-fermi :   4.2239     XC(G=0):  -9.3559     alpha+bet :-13.7962


 k-point     1 :       0.0000    0.0000    0.0000
  band No.  band energies     occupation 
      1     -57.4091      2.00000
      2     -57.3908      2.00000
      3     -32.0579      2.00000
      4     -32.0579      2.00000
      5     -31.8800      2.00000
      6     -31.8800      2.00000
      7     -31.8277      2.00000
      8     -31.7845      2.00000
      9     -16.0926      2.00000
     10     -14.8382      2.00000
     11     -14.0304      2.00000
     12     -14.0304      2.00000
     13      -2.4437      2.00000
     14      -1.9469      2.00000
     15      -1.4484      2.00000
     16      -0.3273      2.00000
     17      -0.3273      2.00000
     18       1.0615      2.00000
     19       1.0615      2.00000
     20       1.6761      2.00000
     21       3.1369      2.00000
     22       3.4531      2.00000
     23       3.4531      2.00000
     24       3.8920      2.00000
     25       7.2662      0.00000
     26       7.5870      0.00000
     27       7.8657      0.00000
     28       7.9577      0.00000
     29       7.9577      0.00000
     30       9.7788      0.00000
     31      10.2920      0.00000
     32      13.3525      0.00000

 k-point     2 :       0.2500    0.0000    0.0000
  band No.  band energies     occupation 
      1     -57.4064      2.00000
      2     -57.3936      2.00000
      3     -32.0366      2.00000
      4     -32.0351      2.00000
      5     -31.9047      2.00000
      6     -31.9032      2.00000
      7     -31.8214      2.00000
      8     -31.7908      2.00000
      9     -15.8624      2.00000
     10     -14.8736      2.00000
     11     -14.2275      2.00000
     12     -14.1173      2.00000
     13      -2.0292      2.00000
     14      -1.6890      2.00000
     15      -0.9934      2.00000
     16      -0.3031      2.00000
     17      -0.2894      2.00000
     18       0.7207      2.00000
     19       0.9609      2.00000
     20       1.7538      2.00000
     21       2.3967      2.00000
     22       2.7665      2.00000
     23       3.0391      2.00000
     24       3.6359      2.00000
     25       7.5796      0.00000
     26       7.9544      0.00000
     27       8.2065      0.00000
     28       8.2761      0.00000
     29       8.2925      0.00000
     30       9.9247      0.00000
     31      10.2857      0.00000
     32      14.1678      0.00000

 k-point     3 :       0.5000    0.0000    0.0000
  band No.  band energies     occupation 
      1     -57.4000      2.00000
      2     -57.4000      2.00000
      3     -31.9989      2.00000
      4     -31.9989      2.00000
      5     -31.9429      2.00000
      6     -31.9429      2.00000
      7     -31.8061      2.00000
      8     -31.8061      2.00000
      9     -15.2986      2.00000
     10     -15.2986      2.00000
     11     -14.2850      2.00000
     12     -14.2850      2.00000
     13      -1.4737      2.00000
     14      -1.4737      2.00000
     15      -0.2656      2.00000
     16      -0.2656      2.00000
     17       0.3945      2.00000
     18       0.3945      2.00000
     19       0.5902      2.00000
     20       0.5902      2.00000
     21       2.1247      2.00000
     22       2.1247      2.00000
     23       3.0775      2.00000
     24       3.0775      2.00000
     25       8.0043      0.00000
     26       8.0043      0.00000
     27       8.5399      0.00000
     28       8.5399      0.00000
     29       9.1337      0.00000
     30       9.1337      0.00000
     31      14.2545      0.00000
     32      14.2870      0.00000

 k-point     4 :       0.2500    0.2500    0.0000
  band No.  band energies     occupation 
      1     -57.4045      2.00000
      2     -57.3954      2.00000
      3     -32.0659      2.00000
      4     -31.9997      2.00000
      5     -31.9420      2.00000
      6     -31.8741      2.00000
      7     -31.8169      2.00000
      8     -31.7953      2.00000
      9     -15.7132      2.00000
     10     -14.9766      2.00000
     11     -14.3154      2.00000
     12     -14.1008      2.00000
     13      -2.1963      2.00000
     14      -1.3921      2.00000
     15      -0.6561      2.00000
     16      -0.3650      2.00000
     17      -0.2652      2.00000
     18       0.5788      2.00000
     19       1.2272      2.00000
     20       1.8886      2.00000
     21       2.0121      2.00000
     22       2.6582      2.00000
     23       2.7270      2.00000
     24       3.4677      2.00000
     25       7.3378      0.00000
     26       7.9711      0.00000
     27       8.0536      0.00000
     28       8.5447      0.00000
     29       8.6532      0.00000
     30       9.7784      0.00000
     31      10.5754      0.00000
     32      14.7219      0.00000

 k-point     5 :       0.5000    0.2500    0.0000
  band No.  band energies     occupation 
      1     -57.4000      2.00000
      2     -57.4000      2.00000
      3     -32.0464      2.00000
      4     -32.0464      2.00000
      5     -31.8956      2.00000
      6     -31.8955      2.00000
      7     -31.8061      2.00000
      8     -31.8061      2.00000
      9     -15.3413      2.00000
     10     -15.3413      2.00000
     11     -14.2249      2.00000
     12     -14.2249      2.00000
     13      -1.8643      2.00000
     14      -1.8643      2.00000
     15      -0.3371      2.00000
     16      -0.3371      2.00000
     17       0.3336      2.00000
     18       0.3336      2.00000
     19       1.5055      2.00000
     20       1.5055      2.00000
     21       2.2838      2.00000
     22       2.2838      2.00000
     23       2.7309      2.00000
     24       2.7309      2.00000
     25       7.6885      0.00000
     26       7.6885      0.00000
     27       8.2522      0.00000
     28       8.2522      0.00000
     29       9.2863      0.00000
     30       9.2863      0.00000
     31      11.6218      0.00000
     32      11.6249      0.00000

 k-point     6 :       0.5000    0.5000    0.0000
  band No.  band energies     occupation 
      1     -57.3999      2.00000
      2     -57.3999      2.00000
      3     -32.0740      2.00000
      4     -32.0740      2.00000
      5     -31.8681      2.00000
      6     -31.8681      2.00000
      7     -31.8062      2.00000
      8     -31.8062      2.00000
      9     -15.3801      2.00000
     10     -15.3801      2.00000
     11     -14.1682      2.00000
     12     -14.1682      2.00000
     13      -2.1777      2.00000
     14      -2.1777      2.00000
     15      -0.4026      2.00000
     16      -0.4025      2.00000
     17       0.7631      2.00000
     18       0.7631      2.00000
     19       1.5524      2.00000
     20       1.5524      2.00000
     21       2.4426      2.00000
     22       2.4426      2.00000
     23       2.7658      2.00000
     24       2.7658      2.00000
     25       7.2916      0.00000
     26       7.2916      0.00000
     27       7.9857      0.00000
     28       7.9858      0.00000
     29       9.4159      0.00000
     30       9.4159      0.00000
     31      12.7495      0.00000
     32      15.9321      0.00000

 k-point     7 :       0.0000    0.0000    0.1667
  band No.  band energies     occupation 
      1     -57.3976      2.00000
      2     -57.3818      2.00000
      3     -32.0264      2.00000
      4     -32.0264      2.00000
      5     -31.9480      2.00000
      6     -31.9123      2.00000
      7     -31.8749      2.00000
      8     -31.8749      2.00000
      9     -15.7909      2.00000
     10     -14.6715      2.00000
     11     -14.1716      2.00000
     12     -14.1716      2.00000
     13      -2.0243      2.00000
     14      -1.6383      2.00000
     15      -1.0943      2.00000
     16      -0.5700      2.00000
     17      -0.5700      2.00000
     18       0.8687      2.00000
     19       1.5744      2.00000
     20       1.5744      2.00000
     21       2.0821      2.00000
     22       2.9142      2.00000
     23       2.9142      2.00000
     24       3.7084      2.00000
     25       7.7113      0.00000
     26       7.8257      0.00000
     27       7.8818      0.00000
     28       8.2759      0.00000
     29       8.2759      0.00000
     30      10.0367      0.00000
     31      10.2146      0.00000
     32      13.1284      0.00000

 k-point     8 :       0.2500    0.0000    0.1667
  band No.  band energies     occupation 
      1     -57.3952      2.00000
      2     -57.3841      2.00000
      3     -32.0142      2.00000
      4     -32.0064      2.00000
      5     -31.9405      2.00000
      6     -31.9349      2.00000
      7     -31.8908      2.00000
      8     -31.8788      2.00000
      9     -15.5873      2.00000
     10     -14.6765      2.00000
     11     -14.3629      2.00000
     12     -14.2397      2.00000
     13      -1.6743      2.00000
     14      -1.3559      2.00000
     15      -0.9571      2.00000
     16      -0.6133      2.00000
     17      -0.1522      2.00000
     18       0.7101      2.00000
     19       1.0344      2.00000
     20       1.5193      2.00000
     21       1.5903      2.00000
     22       2.6508      2.00000
     23       2.7919      2.00000
     24       3.4909      2.00000
     25       7.8297      0.00000
     26       8.1509      0.00000
     27       8.2469      0.00000
     28       8.3030      0.00000
     29       8.6364      0.00000
     30       9.7366      0.00000
     31      10.5738      0.00000
     32      11.7357      0.00000

 k-point     9 :       0.5000    0.0000    0.1667
  band No.  band energies     occupation 
      1     -57.3897      2.00000
      2     -57.3897      2.00000
      3     -31.9804      2.00000
      4     -31.9804      2.00000
      5     -31.9587      2.00000
      6     -31.9587      2.00000
      7     -31.8951      2.00000
      8     -31.8951      2.00000
      9     -15.0803      2.00000
     10     -15.0803      2.00000
     11     -14.3830      2.00000
     12     -14.3830      2.00000
     13      -1.1271      2.00000
     14      -1.1271      2.00000
     15      -0.6326      2.00000
     16      -0.6326      2.00000
     17       0.3094      2.00000
     18       0.3094      2.00000
     19       0.9247      2.00000
     20       0.9247      2.00000
     21       1.5795      2.00000
     22       1.5795      2.00000
     23       3.1289      2.00000
     24       3.1290      2.00000
     25       8.1929      0.00000
     26       8.1929      0.00000
     27       8.5910      0.00000
     28       8.5910      0.00000
     29       9.1427      0.00000
     30       9.1427      0.00000
     31      11.1144      0.00000
     32      11.1187      0.00000

 k-point    10 :       0.2500    0.2500    0.1667
  band No.  band energies     occupation 
      1     -57.3936      2.00000
      2     -57.3857      2.00000
      3     -32.0335      2.00000
      4     -31.9768      2.00000
      5     -31.9670      2.00000
      6     -31.9255      2.00000
      7     -31.8949      2.00000
      8     -31.8697      2.00000
      9     -15.4500      2.00000
     10     -14.7686      2.00000
     11     -14.4288      2.00000
     12     -14.2358      2.00000
     13      -1.8592      2.00000
     14      -1.0289      2.00000
     15      -1.0133      2.00000
     16      -0.6221      2.00000
     17       0.1076      2.00000
     18       0.6011      2.00000
     19       1.1559      2.00000
     20       1.4789      2.00000
     21       1.6319      2.00000
     22       2.6148      2.00000
     23       2.6531      2.00000
     24       3.1724      2.00000
     25       7.7865      0.00000
     26       7.8829      0.00000
     27       8.3346      0.00000
     28       8.7017      0.00000
     29       8.7253      0.00000
     30       9.5553      0.00000
     31      10.7213      0.00000
     32      11.3269      0.00000

 k-point    11 :       0.5000    0.2500    0.1667
  band No.  band energies     occupation 
      1     -57.3897      2.00000
      2     -57.3897      2.00000
      3     -32.0194      2.00000
      4     -32.0194      2.00000
      5     -31.9357      2.00000
      6     -31.9357      2.00000
      7     -31.8797      2.00000
      8     -31.8797      2.00000
      9     -15.1108      2.00000
     10     -15.1108      2.00000
     11     -14.3392      2.00000
     12     -14.3392      2.00000
     13      -1.5314      2.00000
     14      -1.5314      2.00000
     15      -0.8629      2.00000
     16      -0.8629      2.00000
     17       0.7797      2.00000
     18       0.7797      2.00000
     19       1.4197      2.00000
     20       1.4197      2.00000
     21       1.8300      2.00000
     22       1.8300      2.00000
     23       2.7047      2.00000
     24       2.7047      2.00000
     25       8.0616      0.00000
     26       8.0616      0.00000
     27       8.3257      0.00000
     28       8.3257      0.00000
     29       9.1138      0.00000
     30       9.1138      0.00000
     31      11.4631      0.00000
     32      11.4674      0.00000

 k-point    12 :       0.5000    0.5000    0.1667
  band No.  band energies     occupation 
      1     -57.3897      2.00000
      2     -57.3896      2.00000
      3     -32.0407      2.00000
      4     -32.0407      2.00000
      5     -31.9300      2.00000
      6     -31.9300      2.00000
      7     -31.8646      2.00000
      8     -31.8646      2.00000
      9     -15.1383      2.00000
     10     -15.1383      2.00000
     11     -14.2981      2.00000
     12     -14.2981      2.00000
     13      -1.8458      2.00000
     14      -1.8458      2.00000
     15      -0.9831      2.00000
     16      -0.9831      2.00000
     17       1.5545      2.00000
     18       1.5545      2.00000
     19       1.6655      2.00000
     20       1.6655      2.00000
     21       1.7627      2.00000
     22       1.7627      2.00000
     23       2.3881      2.00000
     24       2.3881      2.00000
     25       7.7896      0.00000
     26       7.7896      0.00000
     27       8.1686      0.00000
     28       8.1686      0.00000
     29       9.1092      0.00000
     30       9.1092      0.00000
     31      11.7982      0.00000
     32      11.7986      0.00000

 k-point    13 :       0.0000    0.0000    0.3333
  band No.  band energies     occupation 
      1     -57.3735      2.00000
      2     -57.3644      2.00000
      3     -32.1804      2.00000
      4     -32.1615      2.00000
      5     -31.9560      2.00000
      6     -31.9560      2.00000
      7     -31.8711      2.00000
      8     -31.8711      2.00000
      9     -15.0995      2.00000
     10     -14.4510      2.00000
     11     -14.4510      2.00000
     12     -14.4090      2.00000
     13      -1.1448      2.00000
     14      -1.0703      2.00000
     15      -0.5051      2.00000
     16      -0.5051      2.00000
     17      -0.3052      2.00000
     18      -0.0862      2.00000
     19       0.5184      2.00000
     20       1.7320      2.00000
     21       1.7320      2.00000
     22       2.1301      2.00000
     23       2.1301      2.00000
     24       2.8575      2.00000
     25       7.7740      0.00000
     26       8.2198      0.00000
     27       8.7318      0.00000
     28       8.9176      0.00000
     29       8.9176      0.00000
     30       9.3398      0.00000
     31      10.8280      0.00000
     32      11.7507      0.00000

 k-point    14 :       0.2500    0.0000    0.3333
  band No.  band energies     occupation 
      1     -57.3722      2.00000
      2     -57.3657      2.00000
      3     -32.1852      2.00000
      4     -32.1713      2.00000
      5     -31.9422      2.00000
      6     -31.9380      2.00000
      7     -31.8819      2.00000
      8     -31.8784      2.00000
      9     -15.0321      2.00000
     10     -14.6398      2.00000
     11     -14.4197      2.00000
     12     -14.3222      2.00000
     13      -1.1088      2.00000
     14      -0.9635      2.00000
     15      -0.8765      2.00000
     16      -0.5925      2.00000
     17      -0.0538      2.00000
     18       0.0244      2.00000
     19       0.6441      2.00000
     20       1.5257      2.00000
     21       1.6460      2.00000
     22       2.0925      2.00000
     23       2.2615      2.00000
     24       3.0445      2.00000
     25       7.5255      0.00000
     26       8.3643      0.00000
     27       8.5363      0.00000
     28       8.8020      0.00000
     29       9.1568      0.00000
     30       9.4113      0.00000
     31      10.6516      0.00000
     32      10.7403      0.00000

 k-point    15 :       0.5000    0.0000    0.3333
  band No.  band energies     occupation 
      1     -57.3690      2.00000
      2     -57.3690      2.00000
      3     -32.1851      2.00000
      4     -32.1850      2.00000
      5     -31.9148      2.00000
      6     -31.9148      2.00000
      7     -31.8991      2.00000
      8     -31.8991      2.00000
      9     -14.8612      2.00000
     10     -14.8612      2.00000
     11     -14.3473      2.00000
     12     -14.3473      2.00000
     13      -1.0610      2.00000
     14      -1.0610      2.00000
     15      -0.7572      2.00000
     16      -0.7572      2.00000
     17       0.0579      2.00000
     18       0.0579      2.00000
     19       0.9326      2.00000
     20       0.9326      2.00000
     21       1.9198      2.00000
     22       1.9198      2.00000
     23       2.8008      2.00000
     24       2.8008      2.00000
     25       7.6945      0.00000
     26       7.6945      0.00000
     27       8.8471      0.00000
     28       8.8471      0.00000
     29       9.3564      0.00000
     30       9.3564      0.00000
     31      10.3992      0.00000
     32      10.4008      0.00000

 k-point    16 :       0.2500    0.2500    0.3333
  band No.  band energies     occupation 
      1     -57.3712      2.00000
      2     -57.3667      2.00000
      3     -32.1848      2.00000
      4     -32.1711      2.00000
      5     -31.9606      2.00000
      6     -31.9145      2.00000
      7     -31.8991      2.00000
      8     -31.8683      2.00000
      9     -14.9617      2.00000
     10     -14.6216      2.00000
     11     -14.5049      2.00000
     12     -14.3232      2.00000
     13      -1.1803      2.00000
     14      -1.0734      2.00000
     15      -1.0698      2.00000
     16      -0.5592      2.00000
     17      -0.3323      2.00000
     18       0.4856      2.00000
     19       0.9566      2.00000
     20       1.2371      2.00000
     21       1.6746      2.00000
     22       2.1662      2.00000
     23       2.4537      2.00000
     24       3.1230      2.00000
     25       7.5167      0.00000
     26       8.4057      0.00000
     27       8.6546      0.00000
     28       8.6588      0.00000
     29       8.9389      0.00000
     30       9.4444      0.00000
     31      10.3020      0.00000
     32      11.4382      0.00000

 k-point    17 :       0.5000    0.2500    0.3333
  band No.  band energies     occupation 
      1     -57.3690      2.00000
      2     -57.3689      2.00000
      3     -32.1781      2.00000
      4     -32.1781      2.00000
      5     -31.9460      2.00000
      6     -31.9460      2.00000
      7     -31.8759      2.00000
      8     -31.8759      2.00000
      9     -14.7864      2.00000
     10     -14.7864      2.00000
     11     -14.4183      2.00000
     12     -14.4183      2.00000
     13      -1.2538      2.00000
     14      -1.2538      2.00000
     15      -0.9302      2.00000
     16      -0.9302      2.00000
     17       0.1044      2.00000
     18       0.1044      2.00000
     19       1.3239      2.00000
     20       1.3239      2.00000
     21       1.9523      2.00000
     22       1.9523      2.00000
     23       2.8457      2.00000
     24       2.8457      2.00000
     25       7.9068      0.00000
     26       7.9068      0.00000
     27       8.6656      0.00000
     28       8.6656      0.00000
     29       9.1039      0.00000
     30       9.1039      0.00000
     31      10.8253      0.00000
     32      10.8346      0.00000

 k-point    18 :       0.5000    0.5000    0.3333
  band No.  band energies     occupation 
      1     -57.3690      2.00000
      2     -57.3690      2.00000
      3     -32.1705      2.00000
      4     -32.1705      2.00000
      5     -31.9652      2.00000
      6     -31.9652      2.00000
      7     -31.8655      2.00000
      8     -31.8655      2.00000
      9     -14.6436      2.00000
     10     -14.6436      2.00000
     11     -14.5576      2.00000
     12     -14.5576      2.00000
     13      -1.2946      2.00000
     14      -1.2946      2.00000
     15      -1.2401      2.00000
     16      -1.2401      2.00000
     17       0.2778      2.00000
     18       0.2778      2.00000
     19       1.4098      2.00000
     20       1.4098      2.00000
     21       2.2459      2.00000
     22       2.2459      2.00000
     23       2.7919      2.00000
     24       2.7919      2.00000
     25       8.4284      0.00000
     26       8.4284      0.00000
     27       8.5144      0.00000
     28       8.5144      0.00000
     29       8.5509      0.00000
     30       8.5509      0.00000
     31      11.4656      0.00000
     32      11.4656      0.00000

 k-point    19 :       0.0000    0.0000    0.5000
  band No.  band energies     occupation 
      1     -57.3586      2.00000
      2     -57.3586      2.00000
      3     -32.2881      2.00000
      4     -32.2880      2.00000
      5     -31.9025      2.00000
      6     -31.9025      2.00000
      7     -31.8871      2.00000
      8     -31.8871      2.00000
      9     -14.5893      2.00000
     10     -14.5893      2.00000
     11     -14.5105      2.00000
     12     -14.5105      2.00000
     13      -1.0478      2.00000
     14      -1.0478      2.00000
     15      -0.1247      2.00000
     16      -0.1247      2.00000
     17      -0.1102      2.00000
     18      -0.1102      2.00000
     19       0.8818      2.00000
     20       0.8818      2.00000
     21       1.3795      2.00000
     22       1.3795      2.00000
     23       2.2883      2.00000
     24       2.2883      2.00000
     25       8.4444      0.00000
     26       8.4444      0.00000
     27       8.7767      0.00000
     28       8.7767      0.00000
     29       9.2272      0.00000
     30       9.2272      0.00000
     31      10.9812      0.00000
     32      10.9812      0.00000

 k-point    20 :       0.2500    0.0000    0.5000
  band No.  band energies     occupation 
      1     -57.3586      2.00000
      2     -57.3586      2.00000
      3     -32.2942      2.00000
      4     -32.2942      2.00000
      5     -31.8972      2.00000
      6     -31.8972      2.00000
      7     -31.8863      2.00000
      8     -31.8863      2.00000
      9     -14.8196      2.00000
     10     -14.8196      2.00000
     11     -14.2662      2.00000
     12     -14.2662      2.00000
     13      -1.3161      2.00000
     14      -1.3161      2.00000
     15      -0.5895      2.00000
     16      -0.5895      2.00000
     17       0.3285      2.00000
     18       0.3285      2.00000
     19       0.9952      2.00000
     20       0.9952      2.00000
     21       1.9641      2.00000
     22       1.9641      2.00000
     23       2.1356      2.00000
     24       2.1356      2.00000
     25       7.8633      0.00000
     26       7.8633      0.00000
     27       8.7984      0.00000
     28       8.7984      0.00000
     29       9.4036      0.00000
     30       9.4036      0.00000
     31      10.5719      0.00000
     32      10.5720      0.00000

 k-point    21 :       0.5000    0.0000    0.5000
  band No.  band energies     occupation 
      1     -57.3586      2.00000
      2     -57.3585      2.00000
      3     -32.3002      2.00000
      4     -32.3002      2.00000
      5     -31.8929      2.00000
      6     -31.8929      2.00000
      7     -31.8844      2.00000
      8     -31.8844      2.00000
      9     -14.9255      2.00000
     10     -14.9255      2.00000
     11     -14.1453      2.00000
     12     -14.1453      2.00000
     13      -1.6379      2.00000
     14      -1.6379      2.00000
     15      -0.4674      2.00000
     16      -0.4674      2.00000
     17       0.2624      2.00000
     18       0.2624      2.00000
     19       1.2534      2.00000
     20       1.2534      2.00000
     21       1.6663      2.00000
     22       1.6663      2.00000
     23       2.7698      2.00000
     24       2.7698      2.00000
     25       7.3012      0.00000
     26       7.3012      0.00000
     27       8.8176      0.00000
     28       8.8176      0.00000
     29       9.4971      0.00000
     30       9.4971      0.00000
     31      10.3824      0.00000
     32      10.3824      0.00000

 k-point    22 :       0.2500    0.2500    0.5000
  band No.  band energies     occupation 
      1     -57.3586      2.00000
      2     -57.3585      2.00000
      3     -32.2986      2.00000
      4     -32.2894      2.00000
      5     -31.9037      2.00000
      6     -31.8915      2.00000
      7     -31.8876      2.00000
      8     -31.8858      2.00000
      9     -14.9287      2.00000
     10     -14.6388      2.00000
     11     -14.4491      2.00000
     12     -14.1418      2.00000
     13      -1.6186      2.00000
     14      -0.8833      2.00000
     15      -0.8445      2.00000
     16      -0.7038      2.00000
     17      -0.4609      2.00000
     18       0.8874      2.00000
     19       0.9843      2.00000
     20       0.9907      2.00000
     21       1.9373      2.00000
     22       2.1991      2.00000
     23       2.3653      2.00000
     24       2.6306      2.00000
     25       7.4869      0.00000
     26       8.2325      0.00000
     27       8.7671      0.00000
     28       8.8062      0.00000
     29       8.8241      0.00000
     30       9.6316      0.00000
     31      10.2686      0.00000
     32      11.3848      0.00000

 k-point    23 :       0.5000    0.2500    0.5000
  band No.  band energies     occupation 
      1     -57.3586      2.00000
      2     -57.3586      2.00000
      3     -32.2939      2.00000
      4     -32.2939      2.00000
      5     -31.8984      2.00000
      6     -31.8984      2.00000
      7     -31.8867      2.00000
      8     -31.8867      2.00000
      9     -14.8318      2.00000
     10     -14.8318      2.00000
     11     -14.2412      2.00000
     12     -14.2412      2.00000
     13      -1.5489      2.00000
     14      -1.5489      2.00000
     15      -0.7014      2.00000
     16      -0.7014      2.00000
     17       0.0953      2.00000
     18       0.0953      2.00000
     19       0.9810      2.00000
     20       0.9810      2.00000
     21       2.2471      2.00000
     22       2.2471      2.00000
     23       2.9279      2.00000
     24       2.9279      2.00000
     25       7.5831      0.00000
     26       7.5831      0.00000
     27       8.8304      0.00000
     28       8.8304      0.00000
     29       9.2171      0.00000
     30       9.2171      0.00000
     31      10.6630      0.00000
     32      10.6630      0.00000

 k-point    24 :       0.5000    0.5000    0.5000
  band No.  band energies     occupation 
      1     -57.3586      2.00000
      2     -57.3586      2.00000
      3     -32.2874      2.00000
      4     -32.2874      2.00000
      5     -31.9051      2.00000
      6     -31.9050      2.00000
      7     -31.8880      2.00000
      8     -31.8880      2.00000
      9     -14.6871      2.00000
     10     -14.6871      2.00000
     11     -14.3882      2.00000
     12     -14.3882      2.00000
     13      -1.2597      2.00000
     14      -1.2597      2.00000
     15      -1.1792      2.00000
     16      -1.1792      2.00000
     17       0.0166      2.00000
     18       0.0166      2.00000
     19       0.9130      2.00000
     20       0.9130      2.00000
     21       2.5323      2.00000
     22       2.5323      2.00000
     23       3.1391      2.00000
     24       3.1391      2.00000
     25       8.0413      0.00000
     26       8.0413      0.00000
     27       8.7426      0.00000
     28       8.7426      0.00000
     29       8.8428      0.00000
     30       8.8428      0.00000
     31      11.4979      0.00000
     32      11.4979      0.00000


--------------------------------------------------------------------------------------------------------


 soft charge-density along one line, spin component           1
         0         1         2         3         4         5         6         7         8         9
 total charge-density along one line
 
 pseudopotential strength for first ion, spin component:           1
 -4.818 -18.855   0.000  -0.000  -0.000  -0.000   0.000   0.000
-18.855   6.892  -0.000  -0.000   0.000   0.000  -0.000  -0.000
  0.000  -0.000 -22.728  -0.000   0.003   7.260   0.000  -0.002
 -0.000  -0.000  -0.000 -22.727  -0.000   0.000   7.259  -0.000
 -0.000   0.000   0.003  -0.000 -22.728  -0.002  -0.000   7.260
 -0.000   0.000   7.260   0.000  -0.002   6.506  -0.000   0.000
  0.000  -0.000   0.000   7.259  -0.000  -0.000   6.507  -0.000
  0.000  -0.000  -0.002  -0.000   7.260   0.000  -0.000   6.506
  0.003   0.001  -0.000   0.000   0.000   0.000  -0.000  -0.000
 -0.000  -0.000  -0.000   0.000   0.000   0.000  -0.000  -0.000
 -0.004   0.005  -0.000  -0.000   0.000   0.000   0.000  -0.000
 -0.000   0.000   0.000  -0.000  -0.000  -0.000   0.000   0.000
  0.000  -0.000  -0.000   0.000  -0.000   0.000  -0.000   0.000
  0.003   0.001  -0.000   0.000   0.000   0.000  -0.000  -0.000
 -0.000  -0.000  -0.000   0.000   0.000   0.000  -0.000  -0.000
 -0.005   0.006  -0.000  -0.000   0.000   0.000   0.000  -0.000
 -0.000   0.000   0.000  -0.000  -0.000  -0.000   0.000   0.000
  0.000  -0.000  -0.000   0.000  -0.000   0.000  -0.000   0.000
 total augmentation occupancy for first ion, spin component:           1
  1.987  -0.144  -0.000   0.000   0.000  -0.000   0.000   0.000  -0.002  -0.000   0.020   0.000  -0.000   0.001   0.000  -0.017
 -0.144   1.532  -0.000   0.000  -0.000  -0.000   0.000   0.000   0.048  -0.000   0.430   0.000   0.000  -0.046   0.000  -0.308
 -0.000  -0.000   1.960  -0.000  -0.000  -0.088  -0.000  -0.001   0.000   0.000  -0.000  -0.000   0.000  -0.000  -0.000   0.000
  0.000   0.000  -0.000   1.960   0.000  -0.000  -0.084   0.000   0.000  -0.000   0.000  -0.000  -0.000  -0.000   0.000  -0.000
  0.000  -0.000  -0.000   0.000   1.960  -0.001   0.000  -0.088   0.000  -0.000   0.000   0.000   0.000  -0.000   0.000  -0.000
 -0.000  -0.000  -0.088  -0.000  -0.001   0.202   0.000  -0.003  -0.000  -0.000   0.000  -0.000  -0.000   0.000   0.000  -0.000
  0.000   0.000  -0.000  -0.084   0.000   0.000   0.235  -0.000   0.000   0.000  -0.000  -0.000  -0.000   0.000  -0.000   0.000
  0.000   0.000  -0.001   0.000  -0.088  -0.003  -0.000   0.202   0.000   0.000  -0.000  -0.000  -0.000  -0.000  -0.000   0.000
 -0.002   0.048   0.000   0.000   0.000  -0.000   0.000   0.000   6.730   0.000  -3.139  -0.000  -0.000  -4.335  -0.000   2.106
 -0.000  -0.000   0.000  -0.000  -0.000  -0.000   0.000   0.000   0.000   6.120  -0.000  -3.515   0.000  -0.000  -3.910   0.000
  0.020   0.430  -0.000   0.000   0.000   0.000  -0.000  -0.000  -3.139  -0.000   5.095   0.000   0.000   2.106   0.000  -3.331
  0.000   0.000  -0.000  -0.000   0.000  -0.000  -0.000  -0.000  -0.000  -3.515   0.000   6.120  -0.000   0.000   2.349  -0.000
 -0.000   0.000   0.000  -0.000   0.000  -0.000  -0.000  -0.000  -0.000   0.000   0.000  -0.000   2.230   0.000  -0.000  -0.000
  0.001  -0.046  -0.000  -0.000  -0.000   0.000   0.000  -0.000  -4.335  -0.000   2.106   0.000   0.000   2.830   0.000  -1.429
  0.000   0.000  -0.000   0.000   0.000   0.000  -0.000  -0.000  -0.000  -3.910   0.000   2.349  -0.000   0.000   2.532  -0.000
 -0.017  -0.308   0.000  -0.000  -0.000  -0.000   0.000   0.000   2.106   0.000  -3.331  -0.000  -0.000  -1.429  -0.000   2.196
  0.000  -0.000   0.000   0.000  -0.000   0.000   0.000   0.000   0.000   2.349  -0.000  -3.910   0.000  -0.000  -1.590   0.000
  0.000  -0.000  -0.000   0.000  -0.000   0.000   0.000   0.000   0.000  -0.000  -0.000   0.000  -1.280  -0.000   0.000   0.000


------------------------ aborting loop because EDIFF is reached ----------------------------------------


    FORLOC:  cpu time    0.0006: real time    0.0006
    FORHF :  cpu time   21.0125: real time   21.0254
    FORNL :  cpu time    0.0254: real time    0.0254
    FORCOR:  cpu time    0.0528: real time    0.0532
    OFIELD:  cpu time    0.0000: real time    0.0000

 VOLUME and BASIS-vectors are now :
 -----------------------------------------------------------------------------
  energy-cutoff  :      500.00
  volume of cell :       62.43
      direct lattice vectors                 reciprocal lattice vectors
     4.593700000  0.000000000  0.000000000     0.217689444  0.000000000  0.000000000
     0.000000000  4.593700000  0.000000000     0.000000000  0.217689444  0.000000000
     0.000000000  0.000000000  2.958700000     0.000000000  0.000000000  0.337986278

  length of vectors
     4.593700000  4.593700000  2.958700000     0.217689444  0.217689444  0.337986278


 FORCES acting on ions:
    Electron-Ion                     Ewald-Force                    Non-Local-Force
 -----------------------------------------------------------------------------------------------
   0.247E-06 0.714E-06 -.445E-06   0.000E+00 0.000E+00 -.252E-13   0.000E+00 0.000E+00 0.000E+00
   0.302E-05 0.871E-05 0.186E-06   0.000E+00 0.000E+00 -.256E-13   0.000E+00 0.000E+00 0.000E+00
   0.443E+02 0.443E+02 -.408E-05   -.477E+02 -.477E+02 0.115E-13   0.296E+01 0.296E+01 0.867E-18
   -.443E+02 -.443E+02 0.413E-05   0.477E+02 0.477E+02 0.112E-13   -.296E+01 -.296E+01 -.867E-18
   0.443E+02 -.443E+02 0.269E-05   -.477E+02 0.477E+02 0.148E-13   0.296E+01 -.296E+01 0.347E-17
   -.443E+02 0.443E+02 -.300E-05   0.477E+02 -.477E+02 0.147E-13   -.296E+01 0.296E+01 -.347E-17
 -----------------------------------------------------------------------------------------------
   0.432E-05 0.212E-04 -.508E-06   -.711E-14 -.711E-14 0.143E-14   -.444E-15 -.444E-15 0.000E+00
 
 
 POSITION                                       TOTAL-FORCE (eV/Angst)
 -----------------------------------------------------------------------------------
      0.00000      0.00000      0.00000         0.000000      0.000000     -0.000000
      2.29685      2.29685      1.47935         0.000000      0.000000     -0.000000
      1.40007      1.40007      0.00000         0.066690      0.066690      0.000000
      3.19363      3.19363      0.00000        -0.066690     -0.066690     -0.000000
      3.69692      0.89678      1.47935         0.066690     -0.066690      0.000000
      0.89678      3.69692      1.47935        -0.066690      0.066690      0.000000
 -----------------------------------------------------------------------------------
    total drift:                                0.000004      0.000021     -0.000001


--------------------------------------------------------------------------------------------------------



  FREE ENERGIE OF THE ION-ELECTRON SYSTEM (eV)
  ---------------------------------------------------
  free  energy   TOTEN  =       -66.40247890 eV

  energy  without entropy=      -66.40247890  energy(sigma->0) =      -66.40247890
 


--------------------------------------------------------------------------------------------------------


    POTLOK:  cpu time    0.0535: real time    0.0535


--------------------------------------------------------------------------------------------------------


     LOOP+:  cpu time  608.1307: real time  608.5750
    4ORBIT:  cpu time    0.0000: real time    0.0000

 total amount of memory used by VASP MPI-rank0    49148. kBytes
=======================================================================

   base      :      30000. kBytes
   nonl-proj :      11324. kBytes
   fftplans  :        728. kBytes
   grid      :       2261. kBytes
   one-center:         93. kBytes
   HF        :        129. kBytes
   nonlr-proj:        707. kBytes
   wavefun   :       3906. kBytes
 
  
  
 General timing and accounting informations for this job:
 ========================================================
  
                  Total CPU time used (sec):      611.434
                            User time (sec):      610.243
                          System time (sec):        1.192
                         Elapsed time (sec):      612.193
  
                   Maximum memory used (kb):      267176.
                   Average memory used (kb):           0.
  
                          Minor page faults:        41492
                          Major page faults:         2554
                 Voluntary context switches:          877
