<?xml version="1.0" encoding="ISO-8859-1"?>
<modeling>
 <generator>
  <i name="program" type="string">vasp </i>
  <i name="version" type="string">5.4.4.18Apr17-6-g9f103f2a35  </i>
  <i name="subversion" type="string">(build Mar 10 2026 18:13:51) complex            parallel </i>
  <i name="platform" type="string">LinuxIFC </i>
  <i name="date" type="string">2026 07 01 </i>
  <i name="time" type="string">04:29:10 </i>
 </generator>
 <incar>
  <i type="string" name="SYSTEM"> rutile TiO2 (HSE06 band gap)</i>
  <i type="string" name="PREC">accurate</i>
  <i type="string" name="ALGO"> All</i>
  <i type="int" name="NELM">   200</i>
  <i type="int" name="NELMIN">     6</i>
  <i name="EDIFF">      0.00000100</i>
  <i type="int" name="NSW">     0</i>
  <i name="ENCUT">    500.00000000</i>
  <i name="TIME">      0.40000000</i>
  <i type="int" name="ISMEAR">     0</i>
  <i name="SIGMA">      0.05000000</i>
  <i type="logical" name="LWAVE"> F  </i>
  <i type="logical" name="LCHARG"> F  </i>
  <v type="int" name="KPOINT_BSE">    -1     0     0     0</v>
  <i type="int" name="NELM">   200</i>
  <i type="logical" name="LHFCALC"> T  </i>
  <i name="HFSCREEN">      0.20000000</i>
  <i name="AEXX">      0.25000000</i>
  <i type="string" name="PRECFOCK">fast</i>
 </incar>
 <structure name="primitive_cell" >
  <crystal>
   <varray name="basis" >
    <v>       4.59370000       0.00000000       0.00000000 </v>
    <v>       0.00000000       4.59370000       0.00000000 </v>
    <v>       0.00000000       0.00000000       2.95870000 </v>
   </varray>
   <i name="volume">     62.43472318 </i>
   <varray name="rec_basis" >
    <v>       0.21768944       0.00000000       0.00000000 </v>
    <v>       0.00000000       0.21768944       0.00000000 </v>
    <v>       0.00000000       0.00000000       0.33798628 </v>
   </varray>
  </crystal>
  <varray name="positions" >
   <v>       0.00000000       0.00000000       0.00000000 </v>
   <v>      -0.19522000       0.19522000      -0.50000000 </v>
   <v>       0.19522000      -0.19522000      -0.50000000 </v>
   <v>       0.30478000       0.30478000       0.00000000 </v>
   <v>      -0.30478000      -0.30478000       0.00000000 </v>
   <v>      -0.50000000      -0.50000000      -0.50000000 </v>
  </varray>
 </structure>
 <varray name="primitive_index" >
  <v type="int" >        1 </v>
  <v type="int" >        5 </v>
  <v type="int" >        6 </v>
  <v type="int" >        3 </v>
  <v type="int" >        4 </v>
  <v type="int" >        2 </v>
 </varray>
 <kpoints>
  <generation param="Gamma">
   <v type="int" name="divisions">       4        4        6 </v>
   <v name="usershift">      0.00000000       0.00000000       0.00000000 </v>
   <v name="genvec1">      0.25000000       0.00000000       0.00000000 </v>
   <v name="genvec2">      0.00000000       0.25000000       0.00000000 </v>
   <v name="genvec3">      0.00000000       0.00000000       0.16666667 </v>
   <v name="shift">      0.00000000       0.00000000       0.00000000 </v>
  </generation>
  <varray name="kpointlist" >
   <v>       0.00000000       0.00000000       0.00000000 </v>
   <v>       0.25000000       0.00000000       0.00000000 </v>
   <v>       0.50000000       0.00000000       0.00000000 </v>
   <v>       0.25000000       0.25000000       0.00000000 </v>
   <v>       0.50000000       0.25000000       0.00000000 </v>
   <v>       0.50000000       0.50000000       0.00000000 </v>
   <v>       0.00000000       0.00000000       0.16666667 </v>
   <v>       0.25000000       0.00000000       0.16666667 </v>
   <v>       0.50000000       0.00000000       0.16666667 </v>
   <v>       0.25000000       0.25000000       0.16666667 </v>
   <v>       0.50000000       0.25000000       0.16666667 </v>
   <v>       0.50000000       0.50000000       0.16666667 </v>
   <v>       0.00000000       0.00000000       0.33333333 </v>
   <v>       0.25000000       0.00000000       0.33333333 </v>
   <v>       0.50000000       0.00000000       0.33333333 </v>
   <v>       0.25000000       0.25000000       0.33333333 </v>
   <v>       0.50000000       0.25000000       0.33333333 </v>
   <v>       0.50000000       0.50000000       0.33333333 </v>
   <v>       0.00000000       0.00000000       0.50000000 </v>
   <v>       0.25000000       0.00000000       0.50000000 </v>
   <v>       0.50000000       0.00000000       0.50000000 </v>
   <v>       0.25000000       0.25000000       0.50000000 </v>
   <v>       0.50000000       0.25000000       0.50000000 </v>
   <v>       0.50000000       0.50000000       0.50000000 </v>
  </varray>
  <varray name="weights" >
   <v>       0.01041667 </v>
   <v>       0.04166667 </v>
   <v>       0.02083333 </v>
   <v>       0.04166667 </v>
   <v>       0.04166667 </v>
   <v>       0.01041667 </v>
   <v>       0.02083333 </v>
   <v>       0.08333333 </v>
   <v>       0.04166667 </v>
   <v>       0.08333333 </v>
   <v>       0.08333333 </v>
   <v>       0.02083333 </v>
   <v>       0.02083333 </v>
   <v>       0.08333333 </v>
   <v>       0.04166667 </v>
   <v>       0.08333333 </v>
   <v>       0.08333333 </v>
   <v>       0.02083333 </v>
   <v>       0.01041667 </v>
   <v>       0.04166667 </v>
   <v>       0.02083333 </v>
   <v>       0.04166667 </v>
   <v>       0.04166667 </v>
   <v>       0.01041667 </v>
  </varray>
 </kpoints>
 <parameters>
  <separator name="general" >
   <i type="string" name="SYSTEM">rutile TiO2 (HSE06 band gap)</i>
   <i type="logical" name="LCOMPAT"> F  </i>
  </separator>
  <separator name="electronic" >
   <i type="string" name="PREC">accura</i>
   <i name="ENMAX">    500.00000000</i>
   <i name="ENAUG">    605.39200000</i>
   <i name="EDIFF">      0.00000100</i>
   <i type="int" name="IALGO">    58</i>
   <i type="int" name="IWAVPR">    10</i>
   <i type="int" name="NBANDS">    32</i>
   <i name="NELECT">     48.00000000</i>
   <i type="int" name="TURBO">     0</i>
   <i type="int" name="IRESTART">     0</i>
   <i type="int" name="NREBOOT">     0</i>
   <i type="int" name="NMIN">     0</i>
   <i name="EREF">      0.00000000</i>
   <separator name="electronic smearing" >
    <i type="int" name="ISMEAR">     0</i>
    <i name="SIGMA">      0.05000000</i>
    <i name="KSPACING">      0.50000000</i>
    <i type="logical" name="KGAMMA"> T  </i>
   </separator>
   <separator name="electronic projectors" >
    <i type="logical" name="LREAL"> F  </i>
    <v name="ROPT">      0.00000000      0.00000000</v>
    <i type="int" name="LMAXPAW">  -100</i>
    <i type="int" name="LMAXMIX">     2</i>
    <i type="logical" name="NLSPLINE"> F  </i>
   </separator>
   <separator name="electronic startup" >
    <i type="int" name="ISTART">     0</i>
    <i type="int" name="ICHARG">     2</i>
    <i type="int" name="INIWAV">     1</i>
   </separator>
   <separator name="electronic spin" >
    <i type="int" name="ISPIN">     1</i>
    <i type="logical" name="LNONCOLLINEAR"> F  </i>
    <v name="MAGMOM">      1.00000000      1.00000000      1.00000000      1.00000000      1.00000000      1.00000000</v>
    <i name="NUPDOWN">     -1.00000000</i>
    <i type="logical" name="LSORBIT"> F  </i>
    <v name="SAXIS">      0.00000000      0.00000000      1.00000000</v>
    <i type="logical" name="LSPIRAL"> F  </i>
    <v name="QSPIRAL">      0.00000000      0.00000000      0.00000000</v>
    <i type="logical" name="LZEROZ"> F  </i>
   </separator>
   <separator name="electronic exchange-correlation" >
    <i type="logical" name="LASPH"> F  </i>
    <i type="logical" name="LMETAGGA"> F  </i>
   </separator>
   <separator name="electronic convergence" >
    <i type="int" name="NELM">   200</i>
    <i type="int" name="NELMDL">    -5</i>
    <i type="int" name="NELMIN">     6</i>
    <i name="ENINI">    500.00000000</i>
    <separator name="electronic convergence detail" >
     <i type="logical" name="LDIAG"> T  </i>
     <i type="logical" name="LSUBROT"> F  </i>
     <i name="WEIMIN">      0.00000000</i>
     <i name="EBREAK">      0.00000001</i>
     <i name="DEPER">      0.30000000</i>
     <i type="int" name="NRMM">     4</i>
     <i name="TIME">      0.40000000</i>
    </separator>
   </separator>
   <separator name="electronic mixer" >
    <i name="AMIX">      0.40000000</i>
    <i name="BMIX">      1.00000000</i>
    <i name="AMIN">      0.10000000</i>
    <i name="AMIX_MAG">      1.60000000</i>
    <i name="BMIX_MAG">      1.00000000</i>
    <separator name="electronic mixer details" >
     <i type="int" name="IMIX">     4</i>
     <i type="logical" name="MIXFIRST"> F  </i>
     <i type="int" name="MAXMIX">   -45</i>
     <i name="WC">    100.00000000</i>
     <i type="int" name="INIMIX">     1</i>
     <i type="int" name="MIXPRE">     1</i>
     <i type="int" name="MREMOVE">     5</i>
    </separator>
   </separator>
   <separator name="electronic dipolcorrection" >
    <i type="logical" name="LDIPOL"> F  </i>
    <i type="logical" name="LMONO"> F  </i>
    <i type="int" name="IDIPOL">     0</i>
    <i name="EPSILON">      1.00000000</i>
    <v name="DIPOL">   -100.00000000   -100.00000000   -100.00000000</v>
    <i name="EFIELD">      0.00000000</i>
   </separator>
  </separator>
  <separator name="grids" >
   <i type="int" name="NGX">    36</i>
   <i type="int" name="NGY">    36</i>
   <i type="int" name="NGZ">    24</i>
   <i type="int" name="NGXF">    72</i>
   <i type="int" name="NGYF">    72</i>
   <i type="int" name="NGZF">    48</i>
   <i type="logical" name="ADDGRID"> F  </i>
  </separator>
  <separator name="ionic" >
   <i type="int" name="NSW">     0</i>
   <i type="int" name="IBRION">    -1</i>
   <i type="int" name="MDALGO">     0</i>
   <i type="int" name="ISIF">     0</i>
   <i name="PSTRESS">      0.00000000</i>
   <i name="EDIFFG">      0.00001000</i>
   <i type="int" name="NFREE">     0</i>
   <i name="POTIM">      0.50000000</i>
   <i name="SMASS">     -3.00000000</i>
   <i name="SCALEE">      1.00000000</i>
  </separator>
  <separator name="ionic md" >
   <i name="TEBEG">      0.00010000</i>
   <i name="TEEND">      0.00010000</i>
   <i type="int" name="NBLOCK">     1</i>
   <i type="int" name="KBLOCK">     1</i>
   <i type="int" name="NPACO">   256</i>
   <i name="APACO">     16.00000000</i>
  </separator>
  <separator name="symmetry" >
   <i type="int" name="ISYM">     3</i>
   <i name="SYMPREC">      0.00001000</i>
  </separator>
  <separator name="dos" >
   <i type="int" name="LORBIT">     0</i>
   <v name="RWIGS">     -1.00000000     -1.00000000</v>
   <i type="int" name="NEDOS">   301</i>
   <i name="EMIN">     10.00000000</i>
   <i name="EMAX">    -10.00000000</i>
   <i name="EFERMI">      0.00000000</i>
  </separator>
  <separator name="writing" >
   <i type="int" name="NWRITE">     2</i>
   <i type="logical" name="LWAVE"> F  </i>
   <i type="logical" name="LDOWNSAMPLE"> F  </i>
   <i type="logical" name="LCHARG"> F  </i>
   <i type="logical" name="LPARD"> F  </i>
   <i type="logical" name="LVTOT"> F  </i>
   <i type="logical" name="LVHAR"> F  </i>
   <i type="logical" name="LELF"> F  </i>
   <i type="logical" name="LOPTICS"> F  </i>
   <v name="STM">      0.00000000      0.00000000      0.00000000      0.00000000      0.00000000      0.00000000      0.00000000</v>
  </separator>
  <separator name="performance" >
   <i type="int" name="NPAR">    16</i>
   <i type="int" name="NSIM">     4</i>
   <i type="int" name="NBLK">    -1</i>
   <i type="logical" name="LPLANE"> T  </i>
   <i type="logical" name="LSCALAPACK"> T  </i>
   <i type="logical" name="LSCAAWARE"> F  </i>
   <i type="logical" name="LSCALU"> F  </i>
   <i type="logical" name="LASYNC"> F  </i>
   <i type="logical" name="LORBITALREAL"> F  </i>
  </separator>
  <separator name="miscellaneous" >
   <i type="int" name="IDIOT">     3</i>
   <i type="int" name="ISPECIAL">     0</i>
   <i type="logical" name="LMUSIC"> F  </i>
   <v name="POMASS">     47.88000000     16.00000000</v>
   <v name="DARWINR">      0.00000000      0.00000000</v>
   <v name="DARWINV">      1.00000000      1.00000000</v>
   <i type="logical" name="LCORR"> T  </i>
  </separator>
  <i type="logical" name="GGA_COMPAT"> T  </i>
  <i type="logical" name="LBERRY"> F  </i>
  <i type="int" name="ICORELEVEL">     0</i>
  <i type="logical" name="LDAU"> F  </i>
  <i type="int" name="I_CONSTRAINED_M">     0</i>
  <separator name="electronic exchange-correlation" >
   <i type="string" name="GGA">--</i>
   <i type="int" name="VOSKOWN">     0</i>
   <i type="logical" name="LHFCALC"> T  </i>
   <i type="string" name="PRECFOCK">fast</i>
   <i type="logical" name="LSYMGRAD"> F  </i>
   <i type="logical" name="LHFONE"> F  </i>
   <i type="logical" name="LRHFCALC"> F  </i>
   <i type="logical" name="LTHOMAS"> F  </i>
   <i type="logical" name="LMODELHF"> F  </i>
   <i name="ENCUT4O">     -1.00000000</i>
   <i type="int" name="EXXOEP">     0</i>
   <i type="int" name="FOURORBIT">     0</i>
   <i name="AEXX">      0.25000000</i>
   <i name="HFALPHA">     -1.00000000</i>
   <i name="MCALPHA">      0.00000000</i>
   <i name="ALDAX">      0.75000000</i>
   <i name="AGGAX">      0.75000000</i>
   <i name="ALDAC">      1.00000000</i>
   <i name="AGGAC">      1.00000000</i>
   <i type="int" name="NKREDX">     1</i>
   <i type="int" name="NKREDY">     1</i>
   <i type="int" name="NKREDZ">     1</i>
   <i type="logical" name="SHIFTRED"> F  </i>
   <i type="logical" name="ODDONLY"> F  </i>
   <i type="logical" name="EVENONLY"> F  </i>
   <i type="int" name="LMAXFOCK">     4</i>
   <i type="int" name="NMAXFOCKAE">     1</i>
   <i type="logical" name="LFOCKAEDFT"> F  </i>
   <i name="HFSCREEN">      0.20000000</i>
   <i name="HFSCREENC">      0.20000000</i>
   <i type="int" name="NBANDSGWLOW">     1</i>
  </separator>
  <separator name="vdW DFT" >
   <i type="logical" name="LUSE_VDW"> F  </i>
   <i name="Zab_VDW">     -0.84910000</i>
   <i name="PARAM1">      0.12340000</i>
   <i name="PARAM2">      1.00000000</i>
   <i name="PARAM3">      0.00000000</i>
  </separator>
  <separator name="model GW" >
   <i type="int" name="MODEL_GW">     0</i>
   <i name="MODEL_EPS0">      6.24347232</i>
   <i name="MODEL_ALPHA">      1.00000000</i>
  </separator>
  <separator name="linear response parameters" >
   <i type="logical" name="LEPSILON"> F  </i>
   <i type="logical" name="LRPA"> F  </i>
   <i type="logical" name="LNABLA"> F  </i>
   <i type="logical" name="LVEL"> F  </i>
   <i type="int" name="KINTER">     0</i>
   <i name="CSHIFT">      0.10000000</i>
   <i name="OMEGAMAX">     -1.00000000</i>
   <i name="DEG_THRESHOLD">      0.00200000</i>
   <i name="RTIME">     -0.10000000</i>
   <i name="WPLASMAI">      0.00000000</i>
   <v name="DFIELD">      0.00000000      0.00000000      0.00000000</v>
   <v name="WPLASMA">      0.00000000      0.00000000      0.00000000      0.00000000      0.00000000      0.00000000      0.00000000      0.00000000      0.00000000</v>
  </separator>
  <separator name="orbital magnetization" >
   <i type="logical" name="NUCIND"> F  </i>
   <v name="MAGPOS">      0.00000000      0.00000000      0.00000000</v>
   <i type="logical" name="LNICSALL"> T  </i>
   <i type="logical" name="ORBITALMAG"> F  </i>
   <i type="logical" name="LMAGBLOCH"> F  </i>
   <i type="logical" name="LCHIMAG"> F  </i>
   <i type="logical" name="LGAUGE"> T  </i>
   <i type="int" name="MAGATOM">     0</i>
   <v name="MAGDIPOL">      0.00000000      0.00000000      0.00000000</v>
   <v name="AVECCONST">      0.00000000      0.00000000      0.00000000</v>
  </separator>
  <separator name="response functions" >
   <i type="logical" name="LADDER"> F  </i>
   <i type="logical" name="LRPAFORCE"> F  </i>
   <i type="logical" name="LFXC"> F  </i>
   <i type="logical" name="LHARTREE"> T  </i>
   <i type="int" name="IBSE">     0</i>
   <v type="int" name="KPOINT">    -1     0     0     0</v>
   <i type="logical" name="LTCTE"> F  </i>
   <i type="logical" name="LTETE"> F  </i>
   <i type="logical" name="LTRIPLET"> F  </i>
   <i type="logical" name="LFXCEPS"> F  </i>
   <i type="logical" name="LFXHEG"> F  </i>
   <i type="int" name="NATURALO">     2</i>
   <i type="logical" name="L2ORDER"> F  </i>
   <i type="logical" name="LMP2LT"> F  </i>
   <i type="logical" name="LUSEW"> F  </i>
   <i name="ENCUTGW">     -2.00000000</i>
   <i name="ENCUTGWSOFT">     -2.00000000</i>
   <i name="ENCUTLF">     -1.00000000</i>
   <i type="int" name="LMAXMP2">    -1</i>
   <i name="SCISSOR">      0.00000000</i>
   <i type="int" name="NOMEGA">     0</i>
   <i type="int" name="NOMEGAR">     0</i>
   <i type="int" name="NBANDSGW">    -1</i>
   <i type="int" name="NBANDSO">    -1</i>
   <i type="int" name="NBANDSV">    -1</i>
   <i type="int" name="NELM">   200</i>
   <i type="int" name="NELMHF">     1</i>
   <i type="int" name="DIM">     3</i>
   <i type="int" name="ANTIRES">     0</i>
   <i name="OMEGAMAX">    -30.00000000</i>
   <i name="OMEGAMIN">    -30.00000000</i>
   <i name="OMEGATL">   -200.00000000</i>
   <i type="int" name="OMEGAGRID">   140</i>
   <i name="CSHIFT">     -0.10000000</i>
   <i type="logical" name="SELFENERGY"> F  </i>
   <i type="logical" name="LSPECTRAL"> F  </i>
   <i type="logical" name="LSPECTRALGW"> F  </i>
   <i type="logical" name="LSINGLES"> F  </i>
   <i type="logical" name="LFERMIGW"> F  </i>
   <i type="logical" name="ODDONLYGW"> F  </i>
   <i type="logical" name="EVENONLYGW"> F  </i>
   <i type="int" name="NKREDLFX">     1</i>
   <i type="int" name="NKREDLFY">     1</i>
   <i type="int" name="NKREDLFZ">     1</i>
   <i type="int" name="MAXMEM">  2800</i>
   <i type="int" name="TELESCOPE">     0</i>
   <i type="int" name="TAUPAR">     1</i>
   <i type="int" name="OMEGAPAR">    -1</i>
   <i name="LAMBDA">      1.00000000</i>
  </separator>
  <separator name="External order field" >
   <i name="OFIELD_KAPPA">      0.00000000</i>
   <v name="OFIELD_K">      0.00000000      0.00000000      0.00000000</v>
   <i name="OFIELD_Q6_NEAR">      0.00000000</i>
   <i name="OFIELD_Q6_FAR">      0.00000000</i>
   <i name="OFIELD_A">      0.00000000</i>
  </separator>
 </parameters>
 <atominfo>
  <atoms>       6 </atoms>
  <types>       2 </types>
  <array name="atoms" >
   <dimension dim="1">ion</dimension>
   <field type="string">element</field>
   <field type="int">atomtype</field>
   <set>
    <rc><c>Ti</c><c>   1</c></rc>
    <rc><c>Ti</c><c>   1</c></rc>
    <rc><c>O </c><c>   2</c></rc>
    <rc><c>O </c><c>   2</c></rc>
    <rc><c>O </c><c>   2</c></rc>
    <rc><c>O </c><c>   2</c></rc>
   </set>
  </array>
  <array name="atomtypes" >
   <dimension dim="1">type</dimension>
   <field type="int">atomspertype</field>
   <field type="string">element</field>
   <field>mass</field>
   <field>valence</field>
   <field type="string">pseudopotential</field>
   <set>
    <rc><c>   2</c><c>Ti</c><c>     47.88000000</c><c>     12.00000000</c><c>  PAW_PBE Ti_sv 26Sep2005               </c></rc>
    <rc><c>   4</c><c>O </c><c>     16.00000000</c><c>      6.00000000</c><c>  PAW_PBE O 08Apr2002                   </c></rc>
   </set>
  </array>
 </atominfo>
 <structure name="initialpos" >
  <crystal>
   <varray name="basis" >
    <v>       4.59370000       0.00000000       0.00000000 </v>
    <v>       0.00000000       4.59370000       0.00000000 </v>
    <v>       0.00000000       0.00000000       2.95870000 </v>
   </varray>
   <i name="volume">     62.43472318 </i>
   <varray name="rec_basis" >
    <v>       0.21768944       0.00000000       0.00000000 </v>
    <v>       0.00000000       0.21768944       0.00000000 </v>
    <v>       0.00000000       0.00000000       0.33798628 </v>
   </varray>
  </crystal>
  <varray name="positions" >
   <v>       0.00000000       0.00000000       0.00000000 </v>
   <v>       0.50000000       0.50000000       0.50000000 </v>
   <v>       0.30478000       0.30478000       0.00000000 </v>
   <v>       0.69522000       0.69522000       0.00000000 </v>
   <v>       0.80478000       0.19522000       0.50000000 </v>
   <v>       0.19522000       0.80478000       0.50000000 </v>
  </varray>
 </structure>
 <calculation>
  <scstep>
   <time name="total">    0.17    0.18</time>
   <energy>
    <i name="alphaZ">    198.61100991 </i>
    <i name="ewald">  -3596.18025831 </i>
    <i name="hartreedc">  -1255.84276384 </i>
    <i name="XCdc">    180.44717269 </i>
    <i name="pawpsdc">   3967.53869728 </i>
    <i name="pawaedc">  -3920.28125781 </i>
    <i name="eentropy">     -0.00275707 </i>
    <i name="bandstr">    156.46916194 </i>
    <i name="atom">   4885.86776020 </i>
    <i name="e_fr_energy">    616.62676499 </i>
    <i name="e_wo_entrp">    616.62952206 </i>
    <i name="e_0_energy">    616.62814352 </i>
   </energy>
  </scstep>
  <scstep>
   <time name="total">    0.13    0.13</time>
   <energy>
    <i name="e_fr_energy">    101.69944984 </i>
    <i name="e_wo_entrp">    101.69944984 </i>
    <i name="e_0_energy">    101.69944984 </i>
   </energy>
  </scstep>
  <scstep>
   <time name="total">    0.16    0.16</time>
   <energy>
    <i name="e_fr_energy">     68.51244867 </i>
    <i name="e_wo_entrp">     68.51244867 </i>
    <i name="e_0_energy">     68.51244867 </i>
   </energy>
  </scstep>
  <scstep>
   <time name="total">    0.14    0.14</time>
   <energy>
    <i name="e_fr_energy">     67.84255884 </i>
    <i name="e_wo_entrp">     67.84255884 </i>
    <i name="e_0_energy">     67.84255884 </i>
   </energy>
  </scstep>
  <scstep>
   <time name="total">    0.16    0.16</time>
   <energy>
    <i name="e_fr_energy">     67.82112016 </i>
    <i name="e_wo_entrp">     67.82112016 </i>
    <i name="e_0_energy">     67.82112016 </i>
   </energy>
  </scstep>
  <scstep>
   <time name="total">   22.11   22.13</time>
   <energy>
    <i name="e_fr_energy">    -45.64783969 </i>
    <i name="e_wo_entrp">    -45.64783969 </i>
    <i name="e_0_energy">    -45.64783969 </i>
   </energy>
  </scstep>
  <scstep>
   <time name="total">   22.16   22.17</time>
   <energy>
    <i name="e_fr_energy">    -60.41446557 </i>
    <i name="e_wo_entrp">    -60.41446557 </i>
    <i name="e_0_energy">    -60.41446557 </i>
   </energy>
  </scstep>
  <scstep>
   <time name="total">   22.14   22.16</time>
   <energy>
    <i name="e_fr_energy">    -64.25105471 </i>
    <i name="e_wo_entrp">    -64.25105471 </i>
    <i name="e_0_energy">    -64.25105471 </i>
   </energy>
  </scstep>
  <scstep>
   <time name="total">   22.11   22.12</time>
   <energy>
    <i name="e_fr_energy">    -65.63308705 </i>
    <i name="e_wo_entrp">    -65.63308705 </i>
    <i name="e_0_energy">    -65.63308705 </i>
   </energy>
  </scstep>
  <scstep>
   <time name="total">   22.13   22.15</time>
   <energy>
    <i name="e_fr_energy">    -66.11083286 </i>
    <i name="e_wo_entrp">    -66.11083286 </i>
    <i name="e_0_energy">    -66.11083286 </i>
   </energy>
  </scstep>
  <scstep>
   <time name="total">   22.11   22.13</time>
   <energy>
    <i name="e_fr_energy">    -66.29834143 </i>
    <i name="e_wo_entrp">    -66.29834143 </i>
    <i name="e_0_energy">    -66.29834143 </i>
   </energy>
  </scstep>
  <scstep>
   <time name="total">   22.12   22.14</time>
   <energy>
    <i name="e_fr_energy">    -66.35519526 </i>
    <i name="e_wo_entrp">    -66.35519526 </i>
    <i name="e_0_energy">    -66.35519526 </i>
   </energy>
  </scstep>
  <scstep>
   <time name="total">   22.12   22.14</time>
   <energy>
    <i name="e_fr_energy">    -66.38046925 </i>
    <i name="e_wo_entrp">    -66.38046925 </i>
    <i name="e_0_energy">    -66.38046925 </i>
   </energy>
  </scstep>
  <scstep>
   <time name="total">   22.12   22.14</time>
   <energy>
    <i name="e_fr_energy">    -66.39222157 </i>
    <i name="e_wo_entrp">    -66.39222157 </i>
    <i name="e_0_energy">    -66.39222157 </i>
   </energy>
  </scstep>
  <scstep>
   <time name="total">   22.13   22.14</time>
   <energy>
    <i name="e_fr_energy">    -66.39797281 </i>
    <i name="e_wo_entrp">    -66.39797281 </i>
    <i name="e_0_energy">    -66.39797281 </i>
   </energy>
  </scstep>
  <scstep>
   <time name="total">   22.13   22.14</time>
   <energy>
    <i name="e_fr_energy">    -66.40029230 </i>
    <i name="e_wo_entrp">    -66.40029230 </i>
    <i name="e_0_energy">    -66.40029230 </i>
   </energy>
  </scstep>
  <scstep>
   <time name="total">   22.11   22.13</time>
   <energy>
    <i name="e_fr_energy">    -66.40135588 </i>
    <i name="e_wo_entrp">    -66.40135588 </i>
    <i name="e_0_energy">    -66.40135588 </i>
   </energy>
  </scstep>
  <scstep>
   <time name="total">   22.12   22.14</time>
   <energy>
    <i name="e_fr_energy">    -66.40190553 </i>
    <i name="e_wo_entrp">    -66.40190553 </i>
    <i name="e_0_energy">    -66.40190553 </i>
   </energy>
  </scstep>
  <scstep>
   <time name="total">   22.14   22.15</time>
   <energy>
    <i name="e_fr_energy">    -66.40216962 </i>
    <i name="e_wo_entrp">    -66.40216962 </i>
    <i name="e_0_energy">    -66.40216962 </i>
   </energy>
  </scstep>
  <scstep>
   <time name="total">   22.14   22.15</time>
   <energy>
    <i name="e_fr_energy">    -66.40229969 </i>
    <i name="e_wo_entrp">    -66.40229969 </i>
    <i name="e_0_energy">    -66.40229969 </i>
   </energy>
  </scstep>
  <scstep>
   <time name="total">   22.12   22.13</time>
   <energy>
    <i name="e_fr_energy">    -66.40237297 </i>
    <i name="e_wo_entrp">    -66.40237297 </i>
    <i name="e_0_energy">    -66.40237297 </i>
   </energy>
  </scstep>
  <scstep>
   <time name="total">   22.10   22.12</time>
   <energy>
    <i name="e_fr_energy">    -66.40241657 </i>
    <i name="e_wo_entrp">    -66.40241657 </i>
    <i name="e_0_energy">    -66.40241657 </i>
   </energy>
  </scstep>
  <scstep>
   <time name="total">   22.13   22.15</time>
   <energy>
    <i name="e_fr_energy">    -66.40244159 </i>
    <i name="e_wo_entrp">    -66.40244159 </i>
    <i name="e_0_energy">    -66.40244159 </i>
   </energy>
  </scstep>
  <scstep>
   <time name="total">   22.11   22.13</time>
   <energy>
    <i name="e_fr_energy">    -66.40245515 </i>
    <i name="e_wo_entrp">    -66.40245515 </i>
    <i name="e_0_energy">    -66.40245515 </i>
   </energy>
  </scstep>
  <scstep>
   <time name="total">   22.16   22.18</time>
   <energy>
    <i name="e_fr_energy">    -66.40246375 </i>
    <i name="e_wo_entrp">    -66.40246375 </i>
    <i name="e_0_energy">    -66.40246375 </i>
   </energy>
  </scstep>
  <scstep>
   <time name="total">   22.12   22.14</time>
   <energy>
    <i name="e_fr_energy">    -66.40246920 </i>
    <i name="e_wo_entrp">    -66.40246920 </i>
    <i name="e_0_energy">    -66.40246920 </i>
   </energy>
  </scstep>
  <scstep>
   <time name="total">   22.12   22.13</time>
   <energy>
    <i name="e_fr_energy">    -66.40247241 </i>
    <i name="e_wo_entrp">    -66.40247241 </i>
    <i name="e_0_energy">    -66.40247241 </i>
   </energy>
  </scstep>
  <scstep>
   <time name="total">   22.14   22.15</time>
   <energy>
    <i name="e_fr_energy">    -66.40247494 </i>
    <i name="e_wo_entrp">    -66.40247494 </i>
    <i name="e_0_energy">    -66.40247494 </i>
   </energy>
  </scstep>
  <scstep>
   <time name="total">   22.11   22.13</time>
   <energy>
    <i name="e_fr_energy">    -66.40247675 </i>
    <i name="e_wo_entrp">    -66.40247675 </i>
    <i name="e_0_energy">    -66.40247675 </i>
   </energy>
  </scstep>
  <scstep>
   <time name="total">   22.14   22.15</time>
   <energy>
    <i name="e_fr_energy">    -66.40247803 </i>
    <i name="e_wo_entrp">    -66.40247803 </i>
    <i name="e_0_energy">    -66.40247803 </i>
   </energy>
  </scstep>
  <scstep>
   <time name="total">   33.09   33.11</time>
   <energy>
    <i name="alphaZ">    198.61100991 </i>
    <i name="ewald">  -3596.18025831 </i>
    <i name="hartreedc">  -1225.47863103 </i>
    <i name="XCdc">    181.08968087 </i>
    <i name="pawpsdc">   5711.18106910 </i>
    <i name="pawaedc">  -5657.55016759 </i>
    <i name="eentropy">     -0.00000000 </i>
    <i name="bandstr">   -713.56855679 </i>
    <i name="atom">   4885.86776020 </i>
    <i name="e_fr_energy">    -66.40247890 </i>
    <i name="e_wo_entrp">    -66.40247890 </i>
    <i name="e_0_energy">    -66.40247890 </i>
   </energy>
  </scstep>
  <structure>
   <crystal>
    <varray name="basis" >
     <v>       4.59370000       0.00000000       0.00000000 </v>
     <v>       0.00000000       4.59370000       0.00000000 </v>
     <v>       0.00000000       0.00000000       2.95870000 </v>
    </varray>
    <i name="volume">     62.43472318 </i>
    <varray name="rec_basis" >
     <v>       0.21768944       0.00000000       0.00000000 </v>
     <v>       0.00000000       0.21768944       0.00000000 </v>
     <v>       0.00000000       0.00000000       0.33798628 </v>
    </varray>
   </crystal>
   <varray name="positions" >
    <v>       0.00000000       0.00000000       0.00000000 </v>
    <v>       0.50000000       0.50000000       0.50000000 </v>
    <v>       0.30478000       0.30478000       0.00000000 </v>
    <v>       0.69522000       0.69522000       0.00000000 </v>
    <v>       0.80478000       0.19522000       0.50000000 </v>
    <v>       0.19522000       0.80478000       0.50000000 </v>
   </varray>
  </structure>
  <varray name="forces" >
   <v>       0.00000000       0.00000000      -0.00000000 </v>
   <v>       0.00000000       0.00000000      -0.00000000 </v>
   <v>       0.06669011       0.06669011       0.00000000 </v>
   <v>      -0.06669011      -0.06669011      -0.00000000 </v>
   <v>       0.06669011      -0.06669011       0.00000000 </v>
   <v>      -0.06669011       0.06669011       0.00000000 </v>
  </varray>
  <energy>
   <i name="e_fr_energy">    -66.40247890 </i>
   <i name="e_wo_entrp">    -66.40247890 </i>
   <i name="e_0_energy">     -0.00000000 </i>
  </energy>
  <time name="totalsc">  608.13  608.58</time>
  <eigenvalues>
   <array>
    <dimension dim="1">band</dimension>
    <dimension dim="2">kpoint</dimension>
    <dimension dim="3">spin</dimension>
    <field>eigene</field>
    <field>occ</field>
    <set>
     <set comment="spin 1">
      <set comment="kpoint 1">
       <r>  -57.4091    1.0000 </r>
       <r>  -57.3908    1.0000 </r>
       <r>  -32.0579    1.0000 </r>
       <r>  -32.0579    1.0000 </r>
       <r>  -31.8800    1.0000 </r>
       <r>  -31.8800    1.0000 </r>
       <r>  -31.8277    1.0000 </r>
       <r>  -31.7845    1.0000 </r>
       <r>  -16.0926    1.0000 </r>
       <r>  -14.8382    1.0000 </r>
       <r>  -14.0304    1.0000 </r>
       <r>  -14.0304    1.0000 </r>
       <r>   -2.4437    1.0000 </r>
       <r>   -1.9469    1.0000 </r>
       <r>   -1.4484    1.0000 </r>
       <r>   -0.3273    1.0000 </r>
       <r>   -0.3273    1.0000 </r>
       <r>    1.0615    1.0000 </r>
       <r>    1.0615    1.0000 </r>
       <r>    1.6761    1.0000 </r>
       <r>    3.1369    1.0000 </r>
       <r>    3.4531    1.0000 </r>
       <r>    3.4531    1.0000 </r>
       <r>    3.8920    1.0000 </r>
       <r>    7.2662    0.0000 </r>
       <r>    7.5870    0.0000 </r>
       <r>    7.8657    0.0000 </r>
       <r>    7.9577    0.0000 </r>
       <r>    7.9577    0.0000 </r>
       <r>    9.7788    0.0000 </r>
       <r>   10.2920    0.0000 </r>
       <r>   13.3525    0.0000 </r>
      </set>
      <set comment="kpoint 2">
       <r>  -57.4064    1.0000 </r>
       <r>  -57.3936    1.0000 </r>
       <r>  -32.0366    1.0000 </r>
       <r>  -32.0351    1.0000 </r>
       <r>  -31.9047    1.0000 </r>
       <r>  -31.9032    1.0000 </r>
       <r>  -31.8214    1.0000 </r>
       <r>  -31.7908    1.0000 </r>
       <r>  -15.8624    1.0000 </r>
       <r>  -14.8736    1.0000 </r>
       <r>  -14.2275    1.0000 </r>
       <r>  -14.1173    1.0000 </r>
       <r>   -2.0292    1.0000 </r>
       <r>   -1.6890    1.0000 </r>
       <r>   -0.9934    1.0000 </r>
       <r>   -0.3031    1.0000 </r>
       <r>   -0.2894    1.0000 </r>
       <r>    0.7207    1.0000 </r>
       <r>    0.9609    1.0000 </r>
       <r>    1.7538    1.0000 </r>
       <r>    2.3967    1.0000 </r>
       <r>    2.7665    1.0000 </r>
       <r>    3.0391    1.0000 </r>
       <r>    3.6359    1.0000 </r>
       <r>    7.5796    0.0000 </r>
       <r>    7.9544    0.0000 </r>
       <r>    8.2065    0.0000 </r>
       <r>    8.2761    0.0000 </r>
       <r>    8.2925    0.0000 </r>
       <r>    9.9247    0.0000 </r>
       <r>   10.2857    0.0000 </r>
       <r>   14.1678    0.0000 </r>
      </set>
      <set comment="kpoint 3">
       <r>  -57.4000    1.0000 </r>
       <r>  -57.4000    1.0000 </r>
       <r>  -31.9989    1.0000 </r>
       <r>  -31.9989    1.0000 </r>
       <r>  -31.9429    1.0000 </r>
       <r>  -31.9429    1.0000 </r>
       <r>  -31.8061    1.0000 </r>
       <r>  -31.8061    1.0000 </r>
       <r>  -15.2986    1.0000 </r>
       <r>  -15.2986    1.0000 </r>
       <r>  -14.2850    1.0000 </r>
       <r>  -14.2850    1.0000 </r>
       <r>   -1.4737    1.0000 </r>
       <r>   -1.4737    1.0000 </r>
       <r>   -0.2656    1.0000 </r>
       <r>   -0.2656    1.0000 </r>
       <r>    0.3945    1.0000 </r>
       <r>    0.3945    1.0000 </r>
       <r>    0.5902    1.0000 </r>
       <r>    0.5902    1.0000 </r>
       <r>    2.1247    1.0000 </r>
       <r>    2.1247    1.0000 </r>
       <r>    3.0775    1.0000 </r>
       <r>    3.0775    1.0000 </r>
       <r>    8.0043    0.0000 </r>
       <r>    8.0043    0.0000 </r>
       <r>    8.5399    0.0000 </r>
       <r>    8.5399    0.0000 </r>
       <r>    9.1337    0.0000 </r>
       <r>    9.1337    0.0000 </r>
       <r>   14.2545    0.0000 </r>
       <r>   14.2870    0.0000 </r>
      </set>
      <set comment="kpoint 4">
       <r>  -57.4045    1.0000 </r>
       <r>  -57.3954    1.0000 </r>
       <r>  -32.0659    1.0000 </r>
       <r>  -31.9997    1.0000 </r>
       <r>  -31.9420    1.0000 </r>
       <r>  -31.8741    1.0000 </r>
       <r>  -31.8169    1.0000 </r>
       <r>  -31.7953    1.0000 </r>
       <r>  -15.7132    1.0000 </r>
       <r>  -14.9766    1.0000 </r>
       <r>  -14.3154    1.0000 </r>
       <r>  -14.1008    1.0000 </r>
       <r>   -2.1963    1.0000 </r>
       <r>   -1.3921    1.0000 </r>
       <r>   -0.6561    1.0000 </r>
       <r>   -0.3650    1.0000 </r>
       <r>   -0.2652    1.0000 </r>
       <r>    0.5788    1.0000 </r>
       <r>    1.2272    1.0000 </r>
       <r>    1.8886    1.0000 </r>
       <r>    2.0121    1.0000 </r>
       <r>    2.6582    1.0000 </r>
       <r>    2.7270    1.0000 </r>
       <r>    3.4677    1.0000 </r>
       <r>    7.3378    0.0000 </r>
       <r>    7.9711    0.0000 </r>
       <r>    8.0536    0.0000 </r>
       <r>    8.5447    0.0000 </r>
       <r>    8.6532    0.0000 </r>
       <r>    9.7784    0.0000 </r>
       <r>   10.5754    0.0000 </r>
       <r>   14.7219    0.0000 </r>
      </set>
      <set comment="kpoint 5">
       <r>  -57.4000    1.0000 </r>
       <r>  -57.4000    1.0000 </r>
       <r>  -32.0464    1.0000 </r>
       <r>  -32.0464    1.0000 </r>
       <r>  -31.8956    1.0000 </r>
       <r>  -31.8955    1.0000 </r>
       <r>  -31.8061    1.0000 </r>
       <r>  -31.8061    1.0000 </r>
       <r>  -15.3413    1.0000 </r>
       <r>  -15.3413    1.0000 </r>
       <r>  -14.2249    1.0000 </r>
       <r>  -14.2249    1.0000 </r>
       <r>   -1.8643    1.0000 </r>
       <r>   -1.8643    1.0000 </r>
       <r>   -0.3371    1.0000 </r>
       <r>   -0.3371    1.0000 </r>
       <r>    0.3336    1.0000 </r>
       <r>    0.3336    1.0000 </r>
       <r>    1.5055    1.0000 </r>
       <r>    1.5055    1.0000 </r>
       <r>    2.2838    1.0000 </r>
       <r>    2.2838    1.0000 </r>
       <r>    2.7309    1.0000 </r>
       <r>    2.7309    1.0000 </r>
       <r>    7.6885    0.0000 </r>
       <r>    7.6885    0.0000 </r>
       <r>    8.2522    0.0000 </r>
       <r>    8.2522    0.0000 </r>
       <r>    9.2863    0.0000 </r>
       <r>    9.2863    0.0000 </r>
       <r>   11.6218    0.0000 </r>
       <r>   11.6249    0.0000 </r>
      </set>
      <set comment="kpoint 6">
       <r>  -57.3999    1.0000 </r>
       <r>  -57.3999    1.0000 </r>
       <r>  -32.0740    1.0000 </r>
       <r>  -32.0740    1.0000 </r>
       <r>  -31.8681    1.0000 </r>
       <r>  -31.8681    1.0000 </r>
       <r>  -31.8062    1.0000 </r>
       <r>  -31.8062    1.0000 </r>
       <r>  -15.3801    1.0000 </r>
       <r>  -15.3801    1.0000 </r>
       <r>  -14.1682    1.0000 </r>
       <r>  -14.1682    1.0000 </r>
       <r>   -2.1777    1.0000 </r>
       <r>   -2.1777    1.0000 </r>
       <r>   -0.4026    1.0000 </r>
       <r>   -0.4025    1.0000 </r>
       <r>    0.7631    1.0000 </r>
       <r>    0.7631    1.0000 </r>
       <r>    1.5524    1.0000 </r>
       <r>    1.5524    1.0000 </r>
       <r>    2.4426    1.0000 </r>
       <r>    2.4426    1.0000 </r>
       <r>    2.7658    1.0000 </r>
       <r>    2.7658    1.0000 </r>
       <r>    7.2916    0.0000 </r>
       <r>    7.2916    0.0000 </r>
       <r>    7.9857    0.0000 </r>
       <r>    7.9858    0.0000 </r>
       <r>    9.4159    0.0000 </r>
       <r>    9.4159    0.0000 </r>
       <r>   12.7495    0.0000 </r>
       <r>   15.9321    0.0000 </r>
      </set>
      <set comment="kpoint 7">
       <r>  -57.3976    1.0000 </r>
       <r>  -57.3818    1.0000 </r>
       <r>  -32.0264    1.0000 </r>
       <r>  -32.0264    1.0000 </r>
       <r>  -31.9480    1.0000 </r>
       <r>  -31.9123    1.0000 </r>
       <r>  -31.8749    1.0000 </r>
       <r>  -31.8749    1.0000 </r>
       <r>  -15.7909    1.0000 </r>
       <r>  -14.6715    1.0000 </r>
       <r>  -14.1716    1.0000 </r>
       <r>  -14.1716    1.0000 </r>
       <r>   -2.0243    1.0000 </r>
       <r>   -1.6383    1.0000 </r>
       <r>   -1.0943    1.0000 </r>
       <r>   -0.5700    1.0000 </r>
       <r>   -0.5700    1.0000 </r>
       <r>    0.8687    1.0000 </r>
       <r>    1.5744    1.0000 </r>
       <r>    1.5744    1.0000 </r>
       <r>    2.0821    1.0000 </r>
       <r>    2.9142    1.0000 </r>
       <r>    2.9142    1.0000 </r>
       <r>    3.7084    1.0000 </r>
       <r>    7.7113    0.0000 </r>
       <r>    7.8257    0.0000 </r>
       <r>    7.8818    0.0000 </r>
       <r>    8.2759    0.0000 </r>
       <r>    8.2759    0.0000 </r>
       <r>   10.0367    0.0000 </r>
       <r>   10.2146    0.0000 </r>
       <r>   13.1284    0.0000 </r>
      </set>
      <set comment="kpoint 8">
       <r>  -57.3952    1.0000 </r>
       <r>  -57.3841    1.0000 </r>
       <r>  -32.0142    1.0000 </r>
       <r>  -32.0064    1.0000 </r>
       <r>  -31.9405    1.0000 </r>
       <r>  -31.9349    1.0000 </r>
       <r>  -31.8908    1.0000 </r>
       <r>  -31.8788    1.0000 </r>
       <r>  -15.5873    1.0000 </r>
       <r>  -14.6765    1.0000 </r>
       <r>  -14.3629    1.0000 </r>
       <r>  -14.2397    1.0000 </r>
       <r>   -1.6743    1.0000 </r>
       <r>   -1.3559    1.0000 </r>
       <r>   -0.9571    1.0000 </r>
       <r>   -0.6133    1.0000 </r>
       <r>   -0.1522    1.0000 </r>
       <r>    0.7101    1.0000 </r>
       <r>    1.0344    1.0000 </r>
       <r>    1.5193    1.0000 </r>
       <r>    1.5903    1.0000 </r>
       <r>    2.6508    1.0000 </r>
       <r>    2.7919    1.0000 </r>
       <r>    3.4909    1.0000 </r>
       <r>    7.8297    0.0000 </r>
       <r>    8.1509    0.0000 </r>
       <r>    8.2469    0.0000 </r>
       <r>    8.3030    0.0000 </r>
       <r>    8.6364    0.0000 </r>
       <r>    9.7366    0.0000 </r>
       <r>   10.5738    0.0000 </r>
       <r>   11.7357    0.0000 </r>
      </set>
      <set comment="kpoint 9">
       <r>  -57.3897    1.0000 </r>
       <r>  -57.3897    1.0000 </r>
       <r>  -31.9804    1.0000 </r>
       <r>  -31.9804    1.0000 </r>
       <r>  -31.9587    1.0000 </r>
       <r>  -31.9587    1.0000 </r>
       <r>  -31.8951    1.0000 </r>
       <r>  -31.8951    1.0000 </r>
       <r>  -15.0803    1.0000 </r>
       <r>  -15.0803    1.0000 </r>
       <r>  -14.3830    1.0000 </r>
       <r>  -14.3830    1.0000 </r>
       <r>   -1.1271    1.0000 </r>
       <r>   -1.1271    1.0000 </r>
       <r>   -0.6326    1.0000 </r>
       <r>   -0.6326    1.0000 </r>
       <r>    0.3094    1.0000 </r>
       <r>    0.3094    1.0000 </r>
       <r>    0.9247    1.0000 </r>
       <r>    0.9247    1.0000 </r>
       <r>    1.5795    1.0000 </r>
       <r>    1.5795    1.0000 </r>
       <r>    3.1289    1.0000 </r>
       <r>    3.1290    1.0000 </r>
       <r>    8.1929    0.0000 </r>
       <r>    8.1929    0.0000 </r>
       <r>    8.5910    0.0000 </r>
       <r>    8.5910    0.0000 </r>
       <r>    9.1427    0.0000 </r>
       <r>    9.1427    0.0000 </r>
       <r>   11.1144    0.0000 </r>
       <r>   11.1187    0.0000 </r>
      </set>
      <set comment="kpoint 10">
       <r>  -57.3936    1.0000 </r>
       <r>  -57.3857    1.0000 </r>
       <r>  -32.0335    1.0000 </r>
       <r>  -31.9768    1.0000 </r>
       <r>  -31.9670    1.0000 </r>
       <r>  -31.9255    1.0000 </r>
       <r>  -31.8949    1.0000 </r>
       <r>  -31.8697    1.0000 </r>
       <r>  -15.4500    1.0000 </r>
       <r>  -14.7686    1.0000 </r>
       <r>  -14.4288    1.0000 </r>
       <r>  -14.2358    1.0000 </r>
       <r>   -1.8592    1.0000 </r>
       <r>   -1.0289    1.0000 </r>
       <r>   -1.0133    1.0000 </r>
       <r>   -0.6221    1.0000 </r>
       <r>    0.1076    1.0000 </r>
       <r>    0.6011    1.0000 </r>
       <r>    1.1559    1.0000 </r>
       <r>    1.4789    1.0000 </r>
       <r>    1.6319    1.0000 </r>
       <r>    2.6148    1.0000 </r>
       <r>    2.6531    1.0000 </r>
       <r>    3.1724    1.0000 </r>
       <r>    7.7865    0.0000 </r>
       <r>    7.8829    0.0000 </r>
       <r>    8.3346    0.0000 </r>
       <r>    8.7017    0.0000 </r>
       <r>    8.7253    0.0000 </r>
       <r>    9.5553    0.0000 </r>
       <r>   10.7213    0.0000 </r>
       <r>   11.3269    0.0000 </r>
      </set>
      <set comment="kpoint 11">
       <r>  -57.3897    1.0000 </r>
       <r>  -57.3897    1.0000 </r>
       <r>  -32.0194    1.0000 </r>
       <r>  -32.0194    1.0000 </r>
       <r>  -31.9357    1.0000 </r>
       <r>  -31.9357    1.0000 </r>
       <r>  -31.8797    1.0000 </r>
       <r>  -31.8797    1.0000 </r>
       <r>  -15.1108    1.0000 </r>
       <r>  -15.1108    1.0000 </r>
       <r>  -14.3392    1.0000 </r>
       <r>  -14.3392    1.0000 </r>
       <r>   -1.5314    1.0000 </r>
       <r>   -1.5314    1.0000 </r>
       <r>   -0.8629    1.0000 </r>
       <r>   -0.8629    1.0000 </r>
       <r>    0.7797    1.0000 </r>
       <r>    0.7797    1.0000 </r>
       <r>    1.4197    1.0000 </r>
       <r>    1.4197    1.0000 </r>
       <r>    1.8300    1.0000 </r>
       <r>    1.8300    1.0000 </r>
       <r>    2.7047    1.0000 </r>
       <r>    2.7047    1.0000 </r>
       <r>    8.0616    0.0000 </r>
       <r>    8.0616    0.0000 </r>
       <r>    8.3257    0.0000 </r>
       <r>    8.3257    0.0000 </r>
       <r>    9.1138    0.0000 </r>
       <r>    9.1138    0.0000 </r>
       <r>   11.4631    0.0000 </r>
       <r>   11.4674    0.0000 </r>
      </set>
      <set comment="kpoint 12">
       <r>  -57.3897    1.0000 </r>
       <r>  -57.3896    1.0000 </r>
       <r>  -32.0407    1.0000 </r>
       <r>  -32.0407    1.0000 </r>
       <r>  -31.9300    1.0000 </r>
       <r>  -31.9300    1.0000 </r>
       <r>  -31.8646    1.0000 </r>
       <r>  -31.8646    1.0000 </r>
       <r>  -15.1383    1.0000 </r>
       <r>  -15.1383    1.0000 </r>
       <r>  -14.2981    1.0000 </r>
       <r>  -14.2981    1.0000 </r>
       <r>   -1.8458    1.0000 </r>
       <r>   -1.8458    1.0000 </r>
       <r>   -0.9831    1.0000 </r>
       <r>   -0.9831    1.0000 </r>
       <r>    1.5545    1.0000 </r>
       <r>    1.5545    1.0000 </r>
       <r>    1.6655    1.0000 </r>
       <r>    1.6655    1.0000 </r>
       <r>    1.7627    1.0000 </r>
       <r>    1.7627    1.0000 </r>
       <r>    2.3881    1.0000 </r>
       <r>    2.3881    1.0000 </r>
       <r>    7.7896    0.0000 </r>
       <r>    7.7896    0.0000 </r>
       <r>    8.1686    0.0000 </r>
       <r>    8.1686    0.0000 </r>
       <r>    9.1092    0.0000 </r>
       <r>    9.1092    0.0000 </r>
       <r>   11.7982    0.0000 </r>
       <r>   11.7986    0.0000 </r>
      </set>
      <set comment="kpoint 13">
       <r>  -57.3735    1.0000 </r>
       <r>  -57.3644    1.0000 </r>
       <r>  -32.1804    1.0000 </r>
       <r>  -32.1615    1.0000 </r>
       <r>  -31.9560    1.0000 </r>
       <r>  -31.9560    1.0000 </r>
       <r>  -31.8711    1.0000 </r>
       <r>  -31.8711    1.0000 </r>
       <r>  -15.0995    1.0000 </r>
       <r>  -14.4510    1.0000 </r>
       <r>  -14.4510    1.0000 </r>
       <r>  -14.4090    1.0000 </r>
       <r>   -1.1448    1.0000 </r>
       <r>   -1.0703    1.0000 </r>
       <r>   -0.5051    1.0000 </r>
       <r>   -0.5051    1.0000 </r>
       <r>   -0.3052    1.0000 </r>
       <r>   -0.0862    1.0000 </r>
       <r>    0.5184    1.0000 </r>
       <r>    1.7320    1.0000 </r>
       <r>    1.7320    1.0000 </r>
       <r>    2.1301    1.0000 </r>
       <r>    2.1301    1.0000 </r>
       <r>    2.8575    1.0000 </r>
       <r>    7.7740    0.0000 </r>
       <r>    8.2198    0.0000 </r>
       <r>    8.7318    0.0000 </r>
       <r>    8.9176    0.0000 </r>
       <r>    8.9176    0.0000 </r>
       <r>    9.3398    0.0000 </r>
       <r>   10.8280    0.0000 </r>
       <r>   11.7507    0.0000 </r>
      </set>
      <set comment="kpoint 14">
       <r>  -57.3722    1.0000 </r>
       <r>  -57.3657    1.0000 </r>
       <r>  -32.1852    1.0000 </r>
       <r>  -32.1713    1.0000 </r>
       <r>  -31.9422    1.0000 </r>
       <r>  -31.9380    1.0000 </r>
       <r>  -31.8819    1.0000 </r>
       <r>  -31.8784    1.0000 </r>
       <r>  -15.0321    1.0000 </r>
       <r>  -14.6398    1.0000 </r>
       <r>  -14.4197    1.0000 </r>
       <r>  -14.3222    1.0000 </r>
       <r>   -1.1088    1.0000 </r>
       <r>   -0.9635    1.0000 </r>
       <r>   -0.8765    1.0000 </r>
       <r>   -0.5925    1.0000 </r>
       <r>   -0.0538    1.0000 </r>
       <r>    0.0244    1.0000 </r>
       <r>    0.6441    1.0000 </r>
       <r>    1.5257    1.0000 </r>
       <r>    1.6460    1.0000 </r>
       <r>    2.0925    1.0000 </r>
       <r>    2.2615    1.0000 </r>
       <r>    3.0445    1.0000 </r>
       <r>    7.5255    0.0000 </r>
       <r>    8.3643    0.0000 </r>
       <r>    8.5363    0.0000 </r>
       <r>    8.8020    0.0000 </r>
       <r>    9.1568    0.0000 </r>
       <r>    9.4113    0.0000 </r>
       <r>   10.6516    0.0000 </r>
       <r>   10.7403    0.0000 </r>
      </set>
      <set comment="kpoint 15">
       <r>  -57.3690    1.0000 </r>
       <r>  -57.3690    1.0000 </r>
       <r>  -32.1851    1.0000 </r>
       <r>  -32.1850    1.0000 </r>
       <r>  -31.9148    1.0000 </r>
       <r>  -31.9148    1.0000 </r>
       <r>  -31.8991    1.0000 </r>
       <r>  -31.8991    1.0000 </r>
       <r>  -14.8612    1.0000 </r>
       <r>  -14.8612    1.0000 </r>
       <r>  -14.3473    1.0000 </r>
       <r>  -14.3473    1.0000 </r>
       <r>   -1.0610    1.0000 </r>
       <r>   -1.0610    1.0000 </r>
       <r>   -0.7572    1.0000 </r>
       <r>   -0.7572    1.0000 </r>
       <r>    0.0579    1.0000 </r>
       <r>    0.0579    1.0000 </r>
       <r>    0.9326    1.0000 </r>
       <r>    0.9326    1.0000 </r>
       <r>    1.9198    1.0000 </r>
       <r>    1.9198    1.0000 </r>
       <r>    2.8008    1.0000 </r>
       <r>    2.8008    1.0000 </r>
       <r>    7.6945    0.0000 </r>
       <r>    7.6945    0.0000 </r>
       <r>    8.8471    0.0000 </r>
       <r>    8.8471    0.0000 </r>
       <r>    9.3564    0.0000 </r>
       <r>    9.3564    0.0000 </r>
       <r>   10.3992    0.0000 </r>
       <r>   10.4008    0.0000 </r>
      </set>
      <set comment="kpoint 16">
       <r>  -57.3712    1.0000 </r>
       <r>  -57.3667    1.0000 </r>
       <r>  -32.1848    1.0000 </r>
       <r>  -32.1711    1.0000 </r>
       <r>  -31.9606    1.0000 </r>
       <r>  -31.9145    1.0000 </r>
       <r>  -31.8991    1.0000 </r>
       <r>  -31.8683    1.0000 </r>
       <r>  -14.9617    1.0000 </r>
       <r>  -14.6216    1.0000 </r>
       <r>  -14.5049    1.0000 </r>
       <r>  -14.3232    1.0000 </r>
       <r>   -1.1803    1.0000 </r>
       <r>   -1.0734    1.0000 </r>
       <r>   -1.0698    1.0000 </r>
       <r>   -0.5592    1.0000 </r>
       <r>   -0.3323    1.0000 </r>
       <r>    0.4856    1.0000 </r>
       <r>    0.9566    1.0000 </r>
       <r>    1.2371    1.0000 </r>
       <r>    1.6746    1.0000 </r>
       <r>    2.1662    1.0000 </r>
       <r>    2.4537    1.0000 </r>
       <r>    3.1230    1.0000 </r>
       <r>    7.5167    0.0000 </r>
       <r>    8.4057    0.0000 </r>
       <r>    8.6546    0.0000 </r>
       <r>    8.6588    0.0000 </r>
       <r>    8.9389    0.0000 </r>
       <r>    9.4444    0.0000 </r>
       <r>   10.3020    0.0000 </r>
       <r>   11.4382    0.0000 </r>
      </set>
      <set comment="kpoint 17">
       <r>  -57.3690    1.0000 </r>
       <r>  -57.3689    1.0000 </r>
       <r>  -32.1781    1.0000 </r>
       <r>  -32.1781    1.0000 </r>
       <r>  -31.9460    1.0000 </r>
       <r>  -31.9460    1.0000 </r>
       <r>  -31.8759    1.0000 </r>
       <r>  -31.8759    1.0000 </r>
       <r>  -14.7864    1.0000 </r>
       <r>  -14.7864    1.0000 </r>
       <r>  -14.4183    1.0000 </r>
       <r>  -14.4183    1.0000 </r>
       <r>   -1.2538    1.0000 </r>
       <r>   -1.2538    1.0000 </r>
       <r>   -0.9302    1.0000 </r>
       <r>   -0.9302    1.0000 </r>
       <r>    0.1044    1.0000 </r>
       <r>    0.1044    1.0000 </r>
       <r>    1.3239    1.0000 </r>
       <r>    1.3239    1.0000 </r>
       <r>    1.9523    1.0000 </r>
       <r>    1.9523    1.0000 </r>
       <r>    2.8457    1.0000 </r>
       <r>    2.8457    1.0000 </r>
       <r>    7.9068    0.0000 </r>
       <r>    7.9068    0.0000 </r>
       <r>    8.6656    0.0000 </r>
       <r>    8.6656    0.0000 </r>
       <r>    9.1039    0.0000 </r>
       <r>    9.1039    0.0000 </r>
       <r>   10.8253    0.0000 </r>
       <r>   10.8346    0.0000 </r>
      </set>
      <set comment="kpoint 18">
       <r>  -57.3690    1.0000 </r>
       <r>  -57.3690    1.0000 </r>
       <r>  -32.1705    1.0000 </r>
       <r>  -32.1705    1.0000 </r>
       <r>  -31.9652    1.0000 </r>
       <r>  -31.9652    1.0000 </r>
       <r>  -31.8655    1.0000 </r>
       <r>  -31.8655    1.0000 </r>
       <r>  -14.6436    1.0000 </r>
       <r>  -14.6436    1.0000 </r>
       <r>  -14.5576    1.0000 </r>
       <r>  -14.5576    1.0000 </r>
       <r>   -1.2946    1.0000 </r>
       <r>   -1.2946    1.0000 </r>
       <r>   -1.2401    1.0000 </r>
       <r>   -1.2401    1.0000 </r>
       <r>    0.2778    1.0000 </r>
       <r>    0.2778    1.0000 </r>
       <r>    1.4098    1.0000 </r>
       <r>    1.4098    1.0000 </r>
       <r>    2.2459    1.0000 </r>
       <r>    2.2459    1.0000 </r>
       <r>    2.7919    1.0000 </r>
       <r>    2.7919    1.0000 </r>
       <r>    8.4284    0.0000 </r>
       <r>    8.4284    0.0000 </r>
       <r>    8.5144    0.0000 </r>
       <r>    8.5144    0.0000 </r>
       <r>    8.5509    0.0000 </r>
       <r>    8.5509    0.0000 </r>
       <r>   11.4656    0.0000 </r>
       <r>   11.4656    0.0000 </r>
      </set>
      <set comment="kpoint 19">
       <r>  -57.3586    1.0000 </r>
       <r>  -57.3586    1.0000 </r>
       <r>  -32.2881    1.0000 </r>
       <r>  -32.2880    1.0000 </r>
       <r>  -31.9025    1.0000 </r>
       <r>  -31.9025    1.0000 </r>
       <r>  -31.8871    1.0000 </r>
       <r>  -31.8871    1.0000 </r>
       <r>  -14.5893    1.0000 </r>
       <r>  -14.5893    1.0000 </r>
       <r>  -14.5105    1.0000 </r>
       <r>  -14.5105    1.0000 </r>
       <r>   -1.0478    1.0000 </r>
       <r>   -1.0478    1.0000 </r>
       <r>   -0.1247    1.0000 </r>
       <r>   -0.1247    1.0000 </r>
       <r>   -0.1102    1.0000 </r>
       <r>   -0.1102    1.0000 </r>
       <r>    0.8818    1.0000 </r>
       <r>    0.8818    1.0000 </r>
       <r>    1.3795    1.0000 </r>
       <r>    1.3795    1.0000 </r>
       <r>    2.2883    1.0000 </r>
       <r>    2.2883    1.0000 </r>
       <r>    8.4444    0.0000 </r>
       <r>    8.4444    0.0000 </r>
       <r>    8.7767    0.0000 </r>
       <r>    8.7767    0.0000 </r>
       <r>    9.2272    0.0000 </r>
       <r>    9.2272    0.0000 </r>
       <r>   10.9812    0.0000 </r>
       <r>   10.9812    0.0000 </r>
      </set>
      <set comment="kpoint 20">
       <r>  -57.3586    1.0000 </r>
       <r>  -57.3586    1.0000 </r>
       <r>  -32.2942    1.0000 </r>
       <r>  -32.2942    1.0000 </r>
       <r>  -31.8972    1.0000 </r>
       <r>  -31.8972    1.0000 </r>
       <r>  -31.8863    1.0000 </r>
       <r>  -31.8863    1.0000 </r>
       <r>  -14.8196    1.0000 </r>
       <r>  -14.8196    1.0000 </r>
       <r>  -14.2662    1.0000 </r>
       <r>  -14.2662    1.0000 </r>
       <r>   -1.3161    1.0000 </r>
       <r>   -1.3161    1.0000 </r>
       <r>   -0.5895    1.0000 </r>
       <r>   -0.5895    1.0000 </r>
       <r>    0.3285    1.0000 </r>
       <r>    0.3285    1.0000 </r>
       <r>    0.9952    1.0000 </r>
       <r>    0.9952    1.0000 </r>
       <r>    1.9641    1.0000 </r>
       <r>    1.9641    1.0000 </r>
       <r>    2.1356    1.0000 </r>
       <r>    2.1356    1.0000 </r>
       <r>    7.8633    0.0000 </r>
       <r>    7.8633    0.0000 </r>
       <r>    8.7984    0.0000 </r>
       <r>    8.7984    0.0000 </r>
       <r>    9.4036    0.0000 </r>
       <r>    9.4036    0.0000 </r>
       <r>   10.5719    0.0000 </r>
       <r>   10.5720    0.0000 </r>
      </set>
      <set comment="kpoint 21">
       <r>  -57.3586    1.0000 </r>
       <r>  -57.3585    1.0000 </r>
       <r>  -32.3002    1.0000 </r>
       <r>  -32.3002    1.0000 </r>
       <r>  -31.8929    1.0000 </r>
       <r>  -31.8929    1.0000 </r>
       <r>  -31.8844    1.0000 </r>
       <r>  -31.8844    1.0000 </r>
       <r>  -14.9255    1.0000 </r>
       <r>  -14.9255    1.0000 </r>
       <r>  -14.1453    1.0000 </r>
       <r>  -14.1453    1.0000 </r>
       <r>   -1.6379    1.0000 </r>
       <r>   -1.6379    1.0000 </r>
       <r>   -0.4674    1.0000 </r>
       <r>   -0.4674    1.0000 </r>
       <r>    0.2624    1.0000 </r>
       <r>    0.2624    1.0000 </r>
       <r>    1.2534    1.0000 </r>
       <r>    1.2534    1.0000 </r>
       <r>    1.6663    1.0000 </r>
       <r>    1.6663    1.0000 </r>
       <r>    2.7698    1.0000 </r>
       <r>    2.7698    1.0000 </r>
       <r>    7.3012    0.0000 </r>
       <r>    7.3012    0.0000 </r>
       <r>    8.8176    0.0000 </r>
       <r>    8.8176    0.0000 </r>
       <r>    9.4971    0.0000 </r>
       <r>    9.4971    0.0000 </r>
       <r>   10.3824    0.0000 </r>
       <r>   10.3824    0.0000 </r>
      </set>
      <set comment="kpoint 22">
       <r>  -57.3586    1.0000 </r>
       <r>  -57.3585    1.0000 </r>
       <r>  -32.2986    1.0000 </r>
       <r>  -32.2894    1.0000 </r>
       <r>  -31.9037    1.0000 </r>
       <r>  -31.8915    1.0000 </r>
       <r>  -31.8876    1.0000 </r>
       <r>  -31.8858    1.0000 </r>
       <r>  -14.9287    1.0000 </r>
       <r>  -14.6388    1.0000 </r>
       <r>  -14.4491    1.0000 </r>
       <r>  -14.1418    1.0000 </r>
       <r>   -1.6186    1.0000 </r>
       <r>   -0.8833    1.0000 </r>
       <r>   -0.8445    1.0000 </r>
       <r>   -0.7038    1.0000 </r>
       <r>   -0.4609    1.0000 </r>
       <r>    0.8874    1.0000 </r>
       <r>    0.9843    1.0000 </r>
       <r>    0.9907    1.0000 </r>
       <r>    1.9373    1.0000 </r>
       <r>    2.1991    1.0000 </r>
       <r>    2.3653    1.0000 </r>
       <r>    2.6306    1.0000 </r>
       <r>    7.4869    0.0000 </r>
       <r>    8.2325    0.0000 </r>
       <r>    8.7671    0.0000 </r>
       <r>    8.8062    0.0000 </r>
       <r>    8.8241    0.0000 </r>
       <r>    9.6316    0.0000 </r>
       <r>   10.2686    0.0000 </r>
       <r>   11.3848    0.0000 </r>
      </set>
      <set comment="kpoint 23">
       <r>  -57.3586    1.0000 </r>
       <r>  -57.3586    1.0000 </r>
       <r>  -32.2939    1.0000 </r>
       <r>  -32.2939    1.0000 </r>
       <r>  -31.8984    1.0000 </r>
       <r>  -31.8984    1.0000 </r>
       <r>  -31.8867    1.0000 </r>
       <r>  -31.8867    1.0000 </r>
       <r>  -14.8318    1.0000 </r>
       <r>  -14.8318    1.0000 </r>
       <r>  -14.2412    1.0000 </r>
       <r>  -14.2412    1.0000 </r>
       <r>   -1.5489    1.0000 </r>
       <r>   -1.5489    1.0000 </r>
       <r>   -0.7014    1.0000 </r>
       <r>   -0.7014    1.0000 </r>
       <r>    0.0953    1.0000 </r>
       <r>    0.0953    1.0000 </r>
       <r>    0.9810    1.0000 </r>
       <r>    0.9810    1.0000 </r>
       <r>    2.2471    1.0000 </r>
       <r>    2.2471    1.0000 </r>
       <r>    2.9279    1.0000 </r>
       <r>    2.9279    1.0000 </r>
       <r>    7.5831    0.0000 </r>
       <r>    7.5831    0.0000 </r>
       <r>    8.8304    0.0000 </r>
       <r>    8.8304    0.0000 </r>
       <r>    9.2171    0.0000 </r>
       <r>    9.2171    0.0000 </r>
       <r>   10.6630    0.0000 </r>
       <r>   10.6630    0.0000 </r>
      </set>
      <set comment="kpoint 24">
       <r>  -57.3586    1.0000 </r>
       <r>  -57.3586    1.0000 </r>
       <r>  -32.2874    1.0000 </r>
       <r>  -32.2874    1.0000 </r>
       <r>  -31.9051    1.0000 </r>
       <r>  -31.9050    1.0000 </r>
       <r>  -31.8880    1.0000 </r>
       <r>  -31.8880    1.0000 </r>
       <r>  -14.6871    1.0000 </r>
       <r>  -14.6871    1.0000 </r>
       <r>  -14.3882    1.0000 </r>
       <r>  -14.3882    1.0000 </r>
       <r>   -1.2597    1.0000 </r>
       <r>   -1.2597    1.0000 </r>
       <r>   -1.1792    1.0000 </r>
       <r>   -1.1792    1.0000 </r>
       <r>    0.0166    1.0000 </r>
       <r>    0.0166    1.0000 </r>
       <r>    0.9130    1.0000 </r>
       <r>    0.9130    1.0000 </r>
       <r>    2.5323    1.0000 </r>
       <r>    2.5323    1.0000 </r>
       <r>    3.1391    1.0000 </r>
       <r>    3.1391    1.0000 </r>
       <r>    8.0413    0.0000 </r>
       <r>    8.0413    0.0000 </r>
       <r>    8.7426    0.0000 </r>
       <r>    8.7426    0.0000 </r>
       <r>    8.8428    0.0000 </r>
       <r>    8.8428    0.0000 </r>
       <r>   11.4979    0.0000 </r>
       <r>   11.4979    0.0000 </r>
      </set>
     </set>
    </set>
   </array>
  </eigenvalues>
  <separator name="orbital magnetization" >
   <v name="MAGDIPOLOUT">      0.00000000      0.00000000      0.00000000</v>
  </separator>
  <dos>
   <i name="efermi">      4.30447479 </i>
   <total>
    <array>
     <dimension dim="1">gridpoints</dimension>
     <dimension dim="2">spin</dimension>
     <field>energy</field>
     <field>total</field>
     <field>integrated</field>
     <set>
      <set comment="spin 1">
       <r>   -61.0761     0.0000     0.0000 </r>
       <r>   -60.8072     0.0000     0.0000 </r>
       <r>   -60.5383     0.0000     0.0000 </r>
       <r>   -60.2694     0.0000     0.0000 </r>
       <r>   -60.0005     0.0000     0.0000 </r>
       <r>   -59.7315     0.0000     0.0000 </r>
       <r>   -59.4626     0.0000     0.0000 </r>
       <r>   -59.1937     0.0000     0.0000 </r>
       <r>   -58.9248     0.0000     0.0000 </r>
       <r>   -58.6559     0.0000     0.0000 </r>
       <r>   -58.3869     0.0000     0.0000 </r>
       <r>   -58.1180     0.0000     0.0000 </r>
       <r>   -57.8491     0.0000     0.0000 </r>
       <r>   -57.5802     0.0000     0.0000 </r>
       <r>   -57.3113    14.3093     3.8480 </r>
       <r>   -57.0424     0.5651     4.0000 </r>
       <r>   -56.7734     0.0000     4.0000 </r>
       <r>   -56.5045     0.0000     4.0000 </r>
       <r>   -56.2356     0.0000     4.0000 </r>
       <r>   -55.9667     0.0000     4.0000 </r>
       <r>   -55.6978     0.0000     4.0000 </r>
       <r>   -55.4289     0.0000     4.0000 </r>
       <r>   -55.1599     0.0000     4.0000 </r>
       <r>   -54.8910     0.0000     4.0000 </r>
       <r>   -54.6221     0.0000     4.0000 </r>
       <r>   -54.3532     0.0000     4.0000 </r>
       <r>   -54.0843     0.0000     4.0000 </r>
       <r>   -53.8153     0.0000     4.0000 </r>
       <r>   -53.5464     0.0000     4.0000 </r>
       <r>   -53.2775     0.0000     4.0000 </r>
       <r>   -53.0086     0.0000     4.0000 </r>
       <r>   -52.7397     0.0000     4.0000 </r>
       <r>   -52.4708     0.0000     4.0000 </r>
       <r>   -52.2018     0.0000     4.0000 </r>
       <r>   -51.9329     0.0000     4.0000 </r>
       <r>   -51.6640     0.0000     4.0000 </r>
       <r>   -51.3951     0.0000     4.0000 </r>
       <r>   -51.1262     0.0000     4.0000 </r>
       <r>   -50.8573     0.0000     4.0000 </r>
       <r>   -50.5883     0.0000     4.0000 </r>
       <r>   -50.3194     0.0000     4.0000 </r>
       <r>   -50.0505     0.0000     4.0000 </r>
       <r>   -49.7816     0.0000     4.0000 </r>
       <r>   -49.5127     0.0000     4.0000 </r>
       <r>   -49.2437     0.0000     4.0000 </r>
       <r>   -48.9748     0.0000     4.0000 </r>
       <r>   -48.7059     0.0000     4.0000 </r>
       <r>   -48.4370     0.0000     4.0000 </r>
       <r>   -48.1681     0.0000     4.0000 </r>
       <r>   -47.8992     0.0000     4.0000 </r>
       <r>   -47.6302     0.0000     4.0000 </r>
       <r>   -47.3613     0.0000     4.0000 </r>
       <r>   -47.0924     0.0000     4.0000 </r>
       <r>   -46.8235     0.0000     4.0000 </r>
       <r>   -46.5546     0.0000     4.0000 </r>
       <r>   -46.2857     0.0000     4.0000 </r>
       <r>   -46.0167     0.0000     4.0000 </r>
       <r>   -45.7478     0.0000     4.0000 </r>
       <r>   -45.4789     0.0000     4.0000 </r>
       <r>   -45.2100     0.0000     4.0000 </r>
       <r>   -44.9411     0.0000     4.0000 </r>
       <r>   -44.6721     0.0000     4.0000 </r>
       <r>   -44.4032     0.0000     4.0000 </r>
       <r>   -44.1343     0.0000     4.0000 </r>
       <r>   -43.8654     0.0000     4.0000 </r>
       <r>   -43.5965     0.0000     4.0000 </r>
       <r>   -43.3276     0.0000     4.0000 </r>
       <r>   -43.0586     0.0000     4.0000 </r>
       <r>   -42.7897     0.0000     4.0000 </r>
       <r>   -42.5208     0.0000     4.0000 </r>
       <r>   -42.2519     0.0000     4.0000 </r>
       <r>   -41.9830     0.0000     4.0000 </r>
       <r>   -41.7141     0.0000     4.0000 </r>
       <r>   -41.4451     0.0000     4.0000 </r>
       <r>   -41.1762     0.0000     4.0000 </r>
       <r>   -40.9073     0.0000     4.0000 </r>
       <r>   -40.6384     0.0000     4.0000 </r>
       <r>   -40.3695     0.0000     4.0000 </r>
       <r>   -40.1005     0.0000     4.0000 </r>
       <r>   -39.8316     0.0000     4.0000 </r>
       <r>   -39.5627     0.0000     4.0000 </r>
       <r>   -39.2938     0.0000     4.0000 </r>
       <r>   -39.0249     0.0000     4.0000 </r>
       <r>   -38.7560     0.0000     4.0000 </r>
       <r>   -38.4870     0.0000     4.0000 </r>
       <r>   -38.2181     0.0000     4.0000 </r>
       <r>   -37.9492     0.0000     4.0000 </r>
       <r>   -37.6803     0.0000     4.0000 </r>
       <r>   -37.4114     0.0000     4.0000 </r>
       <r>   -37.1425     0.0000     4.0000 </r>
       <r>   -36.8735     0.0000     4.0000 </r>
       <r>   -36.6046     0.0000     4.0000 </r>
       <r>   -36.3357     0.0000     4.0000 </r>
       <r>   -36.0668     0.0000     4.0000 </r>
       <r>   -35.7979     0.0000     4.0000 </r>
       <r>   -35.5289     0.0000     4.0000 </r>
       <r>   -35.2600     0.0000     4.0000 </r>
       <r>   -34.9911     0.0000     4.0000 </r>
       <r>   -34.7222     0.0000     4.0000 </r>
       <r>   -34.4533     0.0000     4.0000 </r>
       <r>   -34.1844     0.0000     4.0000 </r>
       <r>   -33.9154     0.0000     4.0000 </r>
       <r>   -33.6465     0.0000     4.0000 </r>
       <r>   -33.3776     0.0000     4.0000 </r>
       <r>   -33.1087     0.0000     4.0000 </r>
       <r>   -32.8398     0.0000     4.0000 </r>
       <r>   -32.5709     0.0000     4.0000 </r>
       <r>   -32.3019     1.0226     4.2750 </r>
       <r>   -32.0330     9.3056     6.7774 </r>
       <r>   -31.7641    33.9692    15.9124 </r>
       <r>   -31.4952     0.3254    16.0000 </r>
       <r>   -31.2263     0.0000    16.0000 </r>
       <r>   -30.9573     0.0000    16.0000 </r>
       <r>   -30.6884     0.0000    16.0000 </r>
       <r>   -30.4195     0.0000    16.0000 </r>
       <r>   -30.1506     0.0000    16.0000 </r>
       <r>   -29.8817     0.0000    16.0000 </r>
       <r>   -29.6128     0.0000    16.0000 </r>
       <r>   -29.3438     0.0000    16.0000 </r>
       <r>   -29.0749     0.0000    16.0000 </r>
       <r>   -28.8060     0.0000    16.0000 </r>
       <r>   -28.5371     0.0000    16.0000 </r>
       <r>   -28.2682     0.0000    16.0000 </r>
       <r>   -27.9993     0.0000    16.0000 </r>
       <r>   -27.7303     0.0000    16.0000 </r>
       <r>   -27.4614     0.0000    16.0000 </r>
       <r>   -27.1925     0.0000    16.0000 </r>
       <r>   -26.9236     0.0000    16.0000 </r>
       <r>   -26.6547     0.0000    16.0000 </r>
       <r>   -26.3857     0.0000    16.0000 </r>
       <r>   -26.1168     0.0000    16.0000 </r>
       <r>   -25.8479     0.0000    16.0000 </r>
       <r>   -25.5790     0.0000    16.0000 </r>
       <r>   -25.3101     0.0000    16.0000 </r>
       <r>   -25.0412     0.0000    16.0000 </r>
       <r>   -24.7722     0.0000    16.0000 </r>
       <r>   -24.5033     0.0000    16.0000 </r>
       <r>   -24.2344     0.0000    16.0000 </r>
       <r>   -23.9655     0.0000    16.0000 </r>
       <r>   -23.6966     0.0000    16.0000 </r>
       <r>   -23.4277     0.0000    16.0000 </r>
       <r>   -23.1587     0.0000    16.0000 </r>
       <r>   -22.8898     0.0000    16.0000 </r>
       <r>   -22.6209     0.0000    16.0000 </r>
       <r>   -22.3520     0.0000    16.0000 </r>
       <r>   -22.0831     0.0000    16.0000 </r>
       <r>   -21.8141     0.0000    16.0000 </r>
       <r>   -21.5452     0.0000    16.0000 </r>
       <r>   -21.2763     0.0000    16.0000 </r>
       <r>   -21.0074     0.0000    16.0000 </r>
       <r>   -20.7385     0.0000    16.0000 </r>
       <r>   -20.4696     0.0000    16.0000 </r>
       <r>   -20.2006     0.0000    16.0000 </r>
       <r>   -19.9317     0.0000    16.0000 </r>
       <r>   -19.6628     0.0000    16.0000 </r>
       <r>   -19.3939     0.0000    16.0000 </r>
       <r>   -19.1250     0.0000    16.0000 </r>
       <r>   -18.8561     0.0000    16.0000 </r>
       <r>   -18.5871     0.0000    16.0000 </r>
       <r>   -18.3182     0.0000    16.0000 </r>
       <r>   -18.0493     0.0000    16.0000 </r>
       <r>   -17.7804     0.0000    16.0000 </r>
       <r>   -17.5115     0.0000    16.0000 </r>
       <r>   -17.2426     0.0000    16.0000 </r>
       <r>   -16.9736     0.0000    16.0000 </r>
       <r>   -16.7047     0.0000    16.0000 </r>
       <r>   -16.4358     0.0000    16.0000 </r>
       <r>   -16.1669     0.0014    16.0004 </r>
       <r>   -15.8980     0.1249    16.0340 </r>
       <r>   -15.6290     0.7968    16.2482 </r>
       <r>   -15.3601     1.4725    16.6442 </r>
       <r>   -15.0912     2.2989    17.2624 </r>
       <r>   -14.8223     4.7483    18.5393 </r>
       <r>   -14.5534     5.4685    20.0099 </r>
       <r>   -14.2845     9.3843    22.5335 </r>
       <r>   -14.0155     5.3976    23.9851 </r>
       <r>   -13.7466     0.0554    24.0000 </r>
       <r>   -13.4777     0.0000    24.0000 </r>
       <r>   -13.2088     0.0000    24.0000 </r>
       <r>   -12.9399     0.0000    24.0000 </r>
       <r>   -12.6710     0.0000    24.0000 </r>
       <r>   -12.4020     0.0000    24.0000 </r>
       <r>   -12.1331     0.0000    24.0000 </r>
       <r>   -11.8642     0.0000    24.0000 </r>
       <r>   -11.5953     0.0000    24.0000 </r>
       <r>   -11.3264     0.0000    24.0000 </r>
       <r>   -11.0574     0.0000    24.0000 </r>
       <r>   -10.7885     0.0000    24.0000 </r>
       <r>   -10.5196     0.0000    24.0000 </r>
       <r>   -10.2507     0.0000    24.0000 </r>
       <r>    -9.9818     0.0000    24.0000 </r>
       <r>    -9.7129     0.0000    24.0000 </r>
       <r>    -9.4439     0.0000    24.0000 </r>
       <r>    -9.1750     0.0000    24.0000 </r>
       <r>    -8.9061     0.0000    24.0000 </r>
       <r>    -8.6372     0.0000    24.0000 </r>
       <r>    -8.3683     0.0000    24.0000 </r>
       <r>    -8.0994     0.0000    24.0000 </r>
       <r>    -7.8304     0.0000    24.0000 </r>
       <r>    -7.5615     0.0000    24.0000 </r>
       <r>    -7.2926     0.0000    24.0000 </r>
       <r>    -7.0237     0.0000    24.0000 </r>
       <r>    -6.7548     0.0000    24.0000 </r>
       <r>    -6.4858     0.0000    24.0000 </r>
       <r>    -6.2169     0.0000    24.0000 </r>
       <r>    -5.9480     0.0000    24.0000 </r>
       <r>    -5.6791     0.0000    24.0000 </r>
       <r>    -5.4102     0.0000    24.0000 </r>
       <r>    -5.1413     0.0000    24.0000 </r>
       <r>    -4.8723     0.0000    24.0000 </r>
       <r>    -4.6034     0.0000    24.0000 </r>
       <r>    -4.3345     0.0000    24.0000 </r>
       <r>    -4.0656     0.0000    24.0000 </r>
       <r>    -3.7967     0.0000    24.0000 </r>
       <r>    -3.5278     0.0000    24.0000 </r>
       <r>    -3.2588     0.0000    24.0000 </r>
       <r>    -2.9899     0.0000    24.0000 </r>
       <r>    -2.7210     0.0000    24.0000 </r>
       <r>    -2.4521     0.0314    24.0085 </r>
       <r>    -2.1832     0.3139    24.0929 </r>
       <r>    -1.9142     0.8192    24.3132 </r>
       <r>    -1.6453     2.5048    24.9867 </r>
       <r>    -1.3764     3.3265    25.8813 </r>
       <r>    -1.1075     5.1503    27.2663 </r>
       <r>    -0.8386     8.7554    29.6208 </r>
       <r>    -0.5697     5.4475    31.0857 </r>
       <r>    -0.3007     3.9946    32.1600 </r>
       <r>    -0.0318     2.7646    32.9034 </r>
       <r>     0.2371     4.1299    34.0140 </r>
       <r>     0.5060     3.1712    34.8669 </r>
       <r>     0.7749     3.6634    35.8520 </r>
       <r>     1.0438     5.8911    37.4362 </r>
       <r>     1.3128     2.7757    38.1827 </r>
       <r>     1.5817     6.1045    39.8243 </r>
       <r>     1.8506     5.3261    41.2566 </r>
       <r>     2.1195     4.8263    42.5545 </r>
       <r>     2.3884     4.6768    43.8122 </r>
       <r>     2.6574     3.0868    44.6423 </r>
       <r>     2.9263     7.0750    46.5449 </r>
       <r>     3.1952     3.5789    47.5073 </r>
       <r>     3.4641     0.5828    47.6640 </r>
       <r>     3.7330     1.1332    47.9688 </r>
       <r>     4.0019     0.1160    48.0000 </r>
       <r>     4.2709     0.0001    48.0000 </r>
       <r>     4.5398     0.0000    48.0000 </r>
       <r>     4.8087     0.0000    48.0000 </r>
       <r>     5.0776     0.0000    48.0000 </r>
       <r>     5.3465     0.0000    48.0000 </r>
       <r>     5.6154     0.0000    48.0000 </r>
       <r>     5.8844     0.0000    48.0000 </r>
       <r>     6.1533     0.0000    48.0000 </r>
       <r>     6.4222     0.0000    48.0000 </r>
       <r>     6.6911     0.0000    48.0000 </r>
       <r>     6.9600     0.0000    48.0000 </r>
       <r>     7.2290     0.0239    48.0064 </r>
       <r>     7.4979     1.3485    48.3691 </r>
       <r>     7.7668     3.7585    49.3798 </r>
       <r>     8.0357     5.8463    50.9520 </r>
       <r>     8.3046     6.3227    52.6523 </r>
       <r>     8.5735     5.4880    54.1281 </r>
       <r>     8.8425     8.6618    56.4574 </r>
       <r>     9.1114     3.6734    57.4453 </r>
       <r>     9.3803     4.9196    58.7682 </r>
       <r>     9.6492     3.0144    59.5789 </r>
       <r>     9.9181     1.2333    59.9105 </r>
       <r>    10.1870     0.3709    60.0103 </r>
       <r>    10.4560     2.3231    60.6350 </r>
       <r>    10.7249     3.3352    61.5319 </r>
       <r>    10.9938     2.2272    62.1308 </r>
       <r>    11.2627     0.6972    62.3183 </r>
       <r>    11.5316     3.1589    63.1678 </r>
       <r>    11.8006     1.5973    63.5974 </r>
       <r>    12.0695     0.1803    63.6458 </r>
       <r>    12.3384     0.0000    63.6458 </r>
       <r>    12.6073     0.0000    63.6458 </r>
       <r>    12.8762     0.0775    63.6667 </r>
       <r>    13.1451     0.1057    63.6951 </r>
       <r>    13.4141     0.1236    63.7283 </r>
       <r>    13.6830     0.0032    63.7292 </r>
       <r>    13.9519     0.0000    63.7292 </r>
       <r>    14.2208     0.3203    63.8153 </r>
       <r>    14.4897     0.2994    63.8958 </r>
       <r>    14.7586     0.2637    63.9667 </r>
       <r>    15.0276     0.0462    63.9792 </r>
       <r>    15.2965     0.0000    63.9792 </r>
       <r>    15.5654     0.0000    63.9792 </r>
       <r>    15.8343     0.0002    63.9792 </r>
       <r>    16.1032     0.0773    64.0000 </r>
       <r>    16.3722     0.0000    64.0000 </r>
       <r>    16.6411     0.0000    64.0000 </r>
       <r>    16.9100     0.0000    64.0000 </r>
       <r>    17.1789     0.0000    64.0000 </r>
       <r>    17.4478     0.0000    64.0000 </r>
       <r>    17.7167     0.0000    64.0000 </r>
       <r>    17.9857     0.0000    64.0000 </r>
       <r>    18.2546     0.0000    64.0000 </r>
       <r>    18.5235     0.0000    64.0000 </r>
       <r>    18.7924     0.0000    64.0000 </r>
       <r>    19.0613     0.0000    64.0000 </r>
       <r>    19.3302     0.0000    64.0000 </r>
       <r>    19.5992     0.0000    64.0000 </r>
      </set>
     </set>
    </array>
   </total>
  </dos>
 </calculation>
 <structure name="finalpos" >
  <crystal>
   <varray name="basis" >
    <v>       4.59370000       0.00000000       0.00000000 </v>
    <v>       0.00000000       4.59370000       0.00000000 </v>
    <v>       0.00000000       0.00000000       2.95870000 </v>
   </varray>
   <i name="volume">     62.43472318 </i>
   <varray name="rec_basis" >
    <v>       0.21768944       0.00000000       0.00000000 </v>
    <v>       0.00000000       0.21768944       0.00000000 </v>
    <v>       0.00000000       0.00000000       0.33798628 </v>
   </varray>
  </crystal>
  <varray name="positions" >
   <v>       0.00000000       0.00000000       0.00000000 </v>
   <v>       0.50000000       0.50000000       0.50000000 </v>
   <v>       0.30478000       0.30478000       0.00000000 </v>
   <v>       0.69522000       0.69522000       0.00000000 </v>
   <v>       0.80478000       0.19522000       0.50000000 </v>
   <v>       0.19522000       0.80478000       0.50000000 </v>
  </varray>
 </structure>
</modeling>
