 DBCSR| CPU Multiplication driver                                           XSMM (U)
 DBCSR| Multrec recursion limit                                              512 (U)
 DBCSR| Multiplication stack size                                           1000 (D)
 DBCSR| Maximum elements for images                                    UNLIMITED (U)
 DBCSR| Multiplicative factor virtual images                                   1 (U)
 DBCSR| Use multiplication densification                                       T (D)
 DBCSR| Multiplication size stacks                                             3 (U)
 DBCSR| Use memory pool for CPU allocation                                     F (U)
 DBCSR| Number of 3D layers                                               SINGLE (U)
 DBCSR| Use MPI memory allocation                                              F (U)
 DBCSR| Use RMA algorithm                                                      F (U)
 DBCSR| Use Communication thread                                               T (U)
 DBCSR| Communication thread load                                             87 (D)
 DBCSR| MPI: My process id                                                     0
 DBCSR| MPI: Number of processes                                              32
 DBCSR| OMP: Current number of threads                                         1
 DBCSR| OMP: Max number of threads                                             1
 DBCSR| Split modifier for TAS multiplication algorithm                  1.0E+00 (U)


  **** **** ******  **  PROGRAM STARTED AT               2026-06-28 11:37:59.023
 ***** ** ***  *** **   PROGRAM STARTED ON                                  cu07
 **    ****   ******    PROGRAM STARTED BY                                 rudin
 ***** **    ** ** **   PROGRAM PROCESS ID                               1327138
  **** **  *******  **  PROGRAM STARTED IN /home/rudin/code/kylin-pbc/art/exampl
                                           e/scaling/Si64-PBE

 CP2K| version string:                                       CP2K version 2024.3
 CP2K| source code revision number:                                  git:6712648
 CP2K| cp2kflags: omp libint fftw3 libxc libgrpp elpa parallel scalapack mpi_f08
 CP2K|             cosma xsmm plumed2 spglib mkl libvori libbqb
 CP2K| is freely available from                            https://www.cp2k.org/
 CP2K| Program compiled at            2026年 01月 07日 星期三 01:43:54 CST
 CP2K| Program compiled on                                                  mu01
 CP2K| Program compiled for                                                local
 CP2K| Data directory path    /software/Applications/cp2k/cp2k-2024.3-oneapi-202
 CP2K| Input file name                                                  cp2k.inp
 
 GLOBAL| Force Environment number                                              1
 GLOBAL| Basis set file name                                        BASIS_MOLOPT
 GLOBAL| Potential file name                                      GTH_POTENTIALS
 GLOBAL| MM Potential file name                                     MM_POTENTIAL
 GLOBAL| Coordinate file name                                      __STD_INPUT__
 GLOBAL| Method name                                                        CP2K
 GLOBAL| Project name                                          Si64-PBE-GPW-diag
 GLOBAL| Run type                                                         ENERGY
 GLOBAL| FFT library                                                       FFTW3
 GLOBAL| Diagonalization library                                            ELPA
 GLOBAL| DGEMM library                                                      BLAS
 GLOBAL| Minimum number of eigenvectors for ELPA usage                        16
 GLOBAL| Orthonormality check for eigenvectors                          DISABLED
 GLOBAL| Matrix multiplication library                                     COSMA
 GLOBAL| All-to-all communication in single precision                          F
 GLOBAL| FFTs using library dependent lengths                                  F
 GLOBAL| Grid backend                                                       AUTO
 GLOBAL| Global print level                                               MEDIUM
 GLOBAL| MPI I/O enabled                                                       T
 GLOBAL| Total number of message passing processes                            32
 GLOBAL| Number of threads for this process                                    1
 GLOBAL| This output is from process                                           0
 GLOBAL| Stack size for threads created by OpenMP (OMP_STACKSIZE)        default
 GLOBAL| CPU model name                              INTEL(R) XEON(R) GOLD 6544Y
 GLOBAL| CPUID                                                              1003

 MEMORY| system memory details [Kb]
 MEMORY|                        rank 0           min           max       average
 MEMORY| MemTotal            527978120     527978120     527978120     527978120
 MEMORY| MemFree             521063536     521063536     521063536     521063536
 MEMORY| Buffers                   912           912           912           912
 MEMORY| Cached                 328276        328276        328276        328276
 MEMORY| Slab                   476088        476088        476088        476088
 MEMORY| SReclaimable           137760        137760        137760        137760
 MEMORY| MemLikelyFree       521530484     521530484     521530484     521530484


 *** Fundamental physical constants (SI units) ***

 *** Literature: B. J. Mohr and B. N. Taylor,
 ***             CODATA recommended values of the fundamental physical
 ***             constants: 2006, Web Version 5.1
 ***             http://physics.nist.gov/constants

 Speed of light in vacuum [m/s]                             2.99792458000000E+08
 Magnetic constant or permeability of vacuum [N/A**2]       1.25663706143592E-06
 Electric constant or permittivity of vacuum [F/m]          8.85418781762039E-12
 Planck constant (h) [J*s]                                  6.62606896000000E-34
 Planck constant (h-bar) [J*s]                              1.05457162825177E-34
 Elementary charge [C]                                      1.60217648700000E-19
 Electron mass [kg]                                         9.10938215000000E-31
 Electron g factor [ ]                                     -2.00231930436220E+00
 Proton mass [kg]                                           1.67262163700000E-27
 Fine-structure constant                                    7.29735253760000E-03
 Rydberg constant [1/m]                                     1.09737315685270E+07
 Avogadro constant [1/mol]                                  6.02214179000000E+23
 Boltzmann constant [J/K]                                   1.38065040000000E-23
 Atomic mass unit [kg]                                      1.66053878200000E-27
 Bohr radius [m]                                            5.29177208590000E-11

 *** Conversion factors ***

 [u] -> [a.u.]                                              1.82288848426455E+03
 [Angstrom] -> [Bohr] = [a.u.]                              1.88972613288564E+00
 [a.u.] = [Bohr] -> [Angstrom]                              5.29177208590000E-01
 [a.u.] -> [s]                                              2.41888432650478E-17
 [a.u.] -> [fs]                                             2.41888432650478E-02
 [a.u.] -> [J]                                              4.35974393937059E-18
 [a.u.] -> [N]                                              8.23872205491840E-08
 [a.u.] -> [K]                                              3.15774647902944E+05
 [a.u.] -> [kJ/mol]                                         2.62549961709828E+03
 [a.u.] -> [kcal/mol]                                       6.27509468713739E+02
 [a.u.] -> [Pa]                                             2.94210107994716E+13
 [a.u.] -> [bar]                                            2.94210107994716E+08
 [a.u.] -> [atm]                                            2.90362800883016E+08
 [a.u.] -> [eV]                                             2.72113838565563E+01
 [a.u.] -> [Hz]                                             6.57968392072181E+15
 [a.u.] -> [1/cm] (wave numbers)                            2.19474631370540E+05
 [a.u./Bohr**2] -> [1/cm]                                   5.14048714338585E+03
 

 CELL_TOP| Volume [angstrom^3]:                                      1281.531824
 CELL_TOP| Vector a [angstrom    10.862     0.000     0.000   |a| =    10.862000
 CELL_TOP| Vector b [angstrom     0.000    10.862     0.000   |b| =    10.862000
 CELL_TOP| Vector c [angstrom     0.000     0.000    10.862   |c| =    10.862000
 CELL_TOP| Angle (b,c), alpha [degree]:                                90.000000
 CELL_TOP| Angle (a,c), beta  [degree]:                                90.000000
 CELL_TOP| Angle (a,b), gamma [degree]:                                90.000000
 CELL_TOP| Numerically orthorhombic:                                         YES
 CELL_TOP| Periodicity                                                       XYZ
 
 GENERATE|  Preliminary Number of Bonds generated:                             0
 GENERATE|  Achieved consistency in connectivity generation.

 CELL| Volume [angstrom^3]:                                          1281.531824
 CELL| Vector a [angstrom]:      10.862     0.000     0.000   |a| =    10.862000
 CELL| Vector b [angstrom]:       0.000    10.862     0.000   |b| =    10.862000
 CELL| Vector c [angstrom]:       0.000     0.000    10.862   |c| =    10.862000
 CELL| Angle (b,c), alpha [degree]:                                    90.000000
 CELL| Angle (a,c), beta  [degree]:                                    90.000000
 CELL| Angle (a,b), gamma [degree]:                                    90.000000
 CELL| Numerically orthorhombic:                                             YES
 CELL| Periodicity                                                           XYZ

 CELL_REF| Volume [angstrom^3]:                                      1281.531824
 CELL_REF| Vector a [angstrom    10.862     0.000     0.000   |a| =    10.862000
 CELL_REF| Vector b [angstrom     0.000    10.862     0.000   |b| =    10.862000
 CELL_REF| Vector c [angstrom     0.000     0.000    10.862   |c| =    10.862000
 CELL_REF| Angle (b,c), alpha [degree]:                                90.000000
 CELL_REF| Angle (a,c), beta  [degree]:                                90.000000
 CELL_REF| Angle (a,b), gamma [degree]:                                90.000000
 CELL_REF| Numerically orthorhombic:                                         YES
 CELL_REF| Periodicity                                                       XYZ

 *******************************************************************************
 *******************************************************************************
 **                                                                           **
 **     #####                         ##              ##                      **
 **    ##   ##            ##          ##              ##                      **
 **   ##     ##                       ##            ######                    **
 **   ##     ##  ##   ##  ##   #####  ##  ##   ####   ##    #####    #####    **
 **   ##     ##  ##   ##  ##  ##      ## ##   ##      ##   ##   ##  ##   ##   **
 **   ##  ## ##  ##   ##  ##  ##      ####     ###    ##   ######   ######    **
 **    ##  ###   ##   ##  ##  ##      ## ##      ##   ##   ##       ##        **
 **     #######   #####   ##   #####  ##  ##  ####    ##    #####   ##        **
 **           ##                                                    ##        **
 **                                                                           **
 **                                                ... make the atoms dance   **
 **                                                                           **
 **            Copyright (C) by CP2K developers group (2000-2024)             **
 **                      J. Chem. Phys. 152, 194103 (2020)                    **
 **                                                                           **
 *******************************************************************************

 DFT| Spin restricted Kohn-Sham (RKS) calculation                            RKS
 DFT| Multiplicity                                                             1
 DFT| Number of spin states                                                    1
 DFT| Charge                                                                   0
 DFT| Self-interaction correction (SIC)                                       NO
 DFT| Cutoffs: density                                              1.000000E-10
 DFT|          gradient                                             1.000000E-10
 DFT|          tau                                                  1.000000E-10
 DFT|          cutoff_smoothing_range                               0.000000E+00
 DFT| XC density smoothing                                                  NONE
 DFT| XC derivatives                                                          PW

 FUNCTIONAL| PBE:
 FUNCTIONAL| J.P.Perdew, K.Burke, M.Ernzerhof, Phys. Rev. Letter, vol. 77, n 18,
 FUNCTIONAL|  pp. 3865-3868, (1996) {spin unpolarized}                          


 QS| Method:                                                                 GPW
 QS| Density plane wave grid type                        NON-SPHERICAL FULLSPACE
 QS| Number of grid levels:                                                    4
 QS| Density cutoff [a.u.]:                                                300.0
 QS| Multi grid cutoff [a.u.]: 1) grid level                               300.0
 QS|                           2) grid level                               100.0
 QS|                           3) grid level                                33.3
 QS|                           4) grid level                                11.1
 QS| Grid level progression factor:                                          3.0
 QS| Relative density cutoff [a.u.]:                                        30.0
 QS| Interaction thresholds: eps_pgf_orb:                                1.0E-06
 QS|                         eps_filter_matrix:                          0.0E+00
 QS|                         eps_core_charge:                            1.0E-14
 QS|                         eps_rho_gspace:                             1.0E-12
 QS|                         eps_rho_rspace:                             1.0E-12
 QS|                         eps_gvg_rspace:                             1.0E-06
 QS|                         eps_ppl:                                    1.0E-02
 QS|                         eps_ppnl:                                   1.0E-08


 ATOMIC KIND INFORMATION

  1. Atomic kind: Si                                    Number of atoms:      64

     Orbital Basis Set                                        DZVP-MOLOPT-SR-GTH

       Number of orbital shell sets:                                           1
       Number of orbital shells:                                               5
       Number of primitive Cartesian functions:                                4
       Number of Cartesian basis functions:                                   14
       Number of spherical basis functions:                                   13
       Norm type:                                                              2

       Normalised Cartesian orbitals:

                        Set   Shell   Orbital            Exponent    Coefficient

                          1       1    2s                1.256768       0.294045
                                                         0.506394      -0.015884
                                                         0.238884      -0.207657
                                                         0.087337      -0.036225

                          1       2    3s                1.256768      -1.532347
                                                         0.506394       0.524539
                                                         0.238884       0.025013
                                                         0.087337      -0.052203

                          1       3    3px               1.256768       0.152274
                                                         0.506394      -0.154145
                                                         0.238884      -0.115581
                                                         0.087337      -0.028372
                          1       3    3py               1.256768       0.152274
                                                         0.506394      -0.154145
                                                         0.238884      -0.115581
                                                         0.087337      -0.028372
                          1       3    3pz               1.256768       0.152274
                                                         0.506394      -0.154145
                                                         0.238884      -0.115581
                                                         0.087337      -0.028372

                          1       4    4px               1.256768       0.313378
                                                         0.506394      -0.415360
                                                         0.238884      -0.022539
                                                         0.087337       0.078473
                          1       4    4py               1.256768       0.313378
                                                         0.506394      -0.415360
                                                         0.238884      -0.022539
                                                         0.087337       0.078473
                          1       4    4pz               1.256768       0.313378
                                                         0.506394      -0.415360
                                                         0.238884      -0.022539
                                                         0.087337       0.078473

                          1       5    4dx2              1.256768       0.325879
                                                         0.506394       0.163831
                                                         0.238884       0.044076
                                                         0.087337       0.010608
                          1       5    4dxy              1.256768       0.564439
                                                         0.506394       0.283764
                                                         0.238884       0.076342
                                                         0.087337       0.018373
                          1       5    4dxz              1.256768       0.564439
                                                         0.506394       0.283764
                                                         0.238884       0.076342
                                                         0.087337       0.018373
                          1       5    4dy2              1.256768       0.325879
                                                         0.506394       0.163831
                                                         0.238884       0.044076
                                                         0.087337       0.010608
                          1       5    4dyz              1.256768       0.564439
                                                         0.506394       0.283764
                                                         0.238884       0.076342
                                                         0.087337       0.018373
                          1       5    4dz2              1.256768       0.325879
                                                         0.506394       0.163831
                                                         0.238884       0.044076
                                                         0.087337       0.010608

       Atomic covalent radius [Angstrom]:                                  1.110

       Atomic van der Waals radius [Angstrom]:                             2.100

     GTH Potential information for                                    GTH-PBE-q4

       Description:                       Goedecker-Teter-Hutter pseudopotential
                                           Goedecker et al., PRB 54, 1703 (1996)
                                          Hartwigsen et al., PRB 58, 3641 (1998)
                                                      Krack, TCA 114, 145 (2005)

       Gaussian exponent of the core charge distribution:               2.582645
       Electronic configuration (s p d ...):                               2   2

       Parameters of the local part of the GTH pseudopotential:

                          rloc        C1          C2          C3          C4
                        0.440000   -6.269288

       Parameters of the non-local part of the GTH pseudopotential:

                   l      r(l)      h(i,j,l)

                   0    0.435634    8.951742   -2.706271
                                   -2.706271    3.493781
                   1    0.497942    2.431277


 MOLECULE KIND INFORMATION


 All atoms are their own molecule, skipping detailed information


 TOTAL NUMBERS AND MAXIMUM NUMBERS

  Total number of            - Atomic kinds:                                   1
                             - Atoms:                                         64
                             - Shell sets:                                    64
                             - Shells:                                       320
                             - Primitive Cartesian functions:                256
                             - Cartesian basis functions:                    896
                             - Spherical basis functions:                    832

  Maximum angular momentum of- Orbital basis functions:                        2
                             - Local part of the GTH pseudopotential:          0
                             - Non-local part of the GTH pseudopotential:      2


 MODULE QUICKSTEP: ATOMIC COORDINATES IN ANGSTROM

   Atom Kind Element         X             Y             Z       Z(eff)     Mass
      1    1 Si   14      0.000000      0.000000      0.000000   4.0000  28.0855
      2    1 Si   14      0.000000      2.715500      2.715500   4.0000  28.0855
      3    1 Si   14      2.715500      0.000000      2.715500   4.0000  28.0855
      4    1 Si   14      2.715500      2.715500      0.000000   4.0000  28.0855
      5    1 Si   14      1.357750      1.357750      1.357750   4.0000  28.0855
      6    1 Si   14      1.357750      4.073250      4.073250   4.0000  28.0855
      7    1 Si   14      4.073250      1.357750      4.073250   4.0000  28.0855
      8    1 Si   14      4.073250      4.073250      1.357750   4.0000  28.0855
      9    1 Si   14      0.000000      0.000000      5.431000   4.0000  28.0855
     10    1 Si   14      0.000000      2.715500      8.146500   4.0000  28.0855
     11    1 Si   14      2.715500      0.000000      8.146500   4.0000  28.0855
     12    1 Si   14      2.715500      2.715500      5.431000   4.0000  28.0855
     13    1 Si   14      1.357750      1.357750      6.788750   4.0000  28.0855
     14    1 Si   14      1.357750      4.073250      9.504250   4.0000  28.0855
     15    1 Si   14      4.073250      1.357750      9.504250   4.0000  28.0855
     16    1 Si   14      4.073250      4.073250      6.788750   4.0000  28.0855
     17    1 Si   14      0.000000      5.431000      0.000000   4.0000  28.0855
     18    1 Si   14      0.000000      8.146500      2.715500   4.0000  28.0855
     19    1 Si   14      2.715500      5.431000      2.715500   4.0000  28.0855
     20    1 Si   14      2.715500      8.146500      0.000000   4.0000  28.0855
     21    1 Si   14      1.357750      6.788750      1.357750   4.0000  28.0855
     22    1 Si   14      1.357750      9.504250      4.073250   4.0000  28.0855
     23    1 Si   14      4.073250      6.788750      4.073250   4.0000  28.0855
     24    1 Si   14      4.073250      9.504250      1.357750   4.0000  28.0855
     25    1 Si   14      0.000000      5.431000      5.431000   4.0000  28.0855
     26    1 Si   14      0.000000      8.146500      8.146500   4.0000  28.0855
     27    1 Si   14      2.715500      5.431000      8.146500   4.0000  28.0855
     28    1 Si   14      2.715500      8.146500      5.431000   4.0000  28.0855
     29    1 Si   14      1.357750      6.788750      6.788750   4.0000  28.0855
     30    1 Si   14      1.357750      9.504250      9.504250   4.0000  28.0855
     31    1 Si   14      4.073250      6.788750      9.504250   4.0000  28.0855
     32    1 Si   14      4.073250      9.504250      6.788750   4.0000  28.0855
     33    1 Si   14      5.431000      0.000000      0.000000   4.0000  28.0855
     34    1 Si   14      5.431000      2.715500      2.715500   4.0000  28.0855
     35    1 Si   14      8.146500      0.000000      2.715500   4.0000  28.0855
     36    1 Si   14      8.146500      2.715500      0.000000   4.0000  28.0855
     37    1 Si   14      6.788750      1.357750      1.357750   4.0000  28.0855
     38    1 Si   14      6.788750      4.073250      4.073250   4.0000  28.0855
     39    1 Si   14      9.504250      1.357750      4.073250   4.0000  28.0855
     40    1 Si   14      9.504250      4.073250      1.357750   4.0000  28.0855
     41    1 Si   14      5.431000      0.000000      5.431000   4.0000  28.0855
     42    1 Si   14      5.431000      2.715500      8.146500   4.0000  28.0855
     43    1 Si   14      8.146500      0.000000      8.146500   4.0000  28.0855
     44    1 Si   14      8.146500      2.715500      5.431000   4.0000  28.0855
     45    1 Si   14      6.788750      1.357750      6.788750   4.0000  28.0855
     46    1 Si   14      6.788750      4.073250      9.504250   4.0000  28.0855
     47    1 Si   14      9.504250      1.357750      9.504250   4.0000  28.0855
     48    1 Si   14      9.504250      4.073250      6.788750   4.0000  28.0855
     49    1 Si   14      5.431000      5.431000      0.000000   4.0000  28.0855
     50    1 Si   14      5.431000      8.146500      2.715500   4.0000  28.0855
     51    1 Si   14      8.146500      5.431000      2.715500   4.0000  28.0855
     52    1 Si   14      8.146500      8.146500      0.000000   4.0000  28.0855
     53    1 Si   14      6.788750      6.788750      1.357750   4.0000  28.0855
     54    1 Si   14      6.788750      9.504250      4.073250   4.0000  28.0855
     55    1 Si   14      9.504250      6.788750      4.073250   4.0000  28.0855
     56    1 Si   14      9.504250      9.504250      1.357750   4.0000  28.0855
     57    1 Si   14      5.431000      5.431000      5.431000   4.0000  28.0855
     58    1 Si   14      5.431000      8.146500      8.146500   4.0000  28.0855
     59    1 Si   14      8.146500      5.431000      8.146500   4.0000  28.0855
     60    1 Si   14      8.146500      8.146500      5.431000   4.0000  28.0855
     61    1 Si   14      6.788750      6.788750      6.788750   4.0000  28.0855
     62    1 Si   14      6.788750      9.504250      9.504250   4.0000  28.0855
     63    1 Si   14      9.504250      6.788750      9.504250   4.0000  28.0855
     64    1 Si   14      9.504250      9.504250      6.788750   4.0000  28.0855



 SCF PARAMETERS         Density guess:                                    ATOMIC
                        --------------------------------------------------------
                        max_scf:                                             100
                        max_scf_history:                                       0
                        max_diis:                                              4
                        --------------------------------------------------------
                        eps_scf:                                        1.00E-06
                        eps_scf_history:                                0.00E+00
                        eps_diis:                                       1.00E-01
                        eps_eigval:                                     1.00E-05
                        --------------------------------------------------------
                        level_shift [a.u.]:                             0.000000
                        added MOs                                        16    0
                        --------------------------------------------------------
                        Mixing method:                              PULAY_MIXING
                                                charge density mixing in g-space
                        --------------------------------------------------------
                        Smear method:                                FERMI_DIRAC
                        Electronic temperature [K]:                        300.0
                        Electronic temperature [a.u.]:                  9.50E-04
                        Accuracy threshold:                             1.00E-10
                        --------------------------------------------------------
                        No outer SCF

 PW_GRID| Information for grid number                                          1
 PW_GRID| Grid distributed over                                    32 processors
 PW_GRID| Real space group dimensions                                    32    1
 PW_GRID| the grid is blocked:                                                NO
 PW_GRID| Cutoff [a.u.]                                                    300.0
 PW_GRID| spherical cutoff:                                                   NO
 PW_GRID|   Bounds   1            -81      80                Points:         162
 PW_GRID|   Bounds   2            -81      80                Points:         162
 PW_GRID|   Bounds   3            -81      80                Points:         162
 PW_GRID| Volume element (a.u.^3)  0.2034E-02     Volume (a.u.^3)      8648.2055
 PW_GRID| Grid span                                                    FULLSPACE
 PW_GRID|   Distribution                         Average         Max         Min
 PW_GRID|   G-Vectors                           132860.2      133002      132840
 PW_GRID|   G-Rays                                 820.1         821         820
 PW_GRID|   Real Space Points                   132860.2      157464      131220

 PW_GRID| Information for grid number                                          2
 PW_GRID| Number of the reference grid                                         1
 PW_GRID| Grid distributed over                                    32 processors
 PW_GRID| Real space group dimensions                                    32    1
 PW_GRID| the grid is blocked:                                                NO
 PW_GRID| Cutoff [a.u.]                                                    100.0
 PW_GRID| spherical cutoff:                                                   NO
 PW_GRID|   Bounds   1            -48      47                Points:          96
 PW_GRID|   Bounds   2            -48      47                Points:          96
 PW_GRID|   Bounds   3            -48      47                Points:          96
 PW_GRID| Volume element (a.u.^3)  0.9775E-02     Volume (a.u.^3)      8648.2055
 PW_GRID| Grid span                                                    FULLSPACE
 PW_GRID|   Distribution                         Average         Max         Min
 PW_GRID|   G-Vectors                            27648.0       27936       27456
 PW_GRID|   G-Rays                                 288.0         291         286
 PW_GRID|   Real Space Points                    27648.0       27648       27648

 PW_GRID| Information for grid number                                          3
 PW_GRID| Number of the reference grid                                         1
 PW_GRID| Grid distributed over                                    32 processors
 PW_GRID| Real space group dimensions                                    32    1
 PW_GRID| the grid is blocked:                                                NO
 PW_GRID| Cutoff [a.u.]                                                     33.3
 PW_GRID| spherical cutoff:                                                   NO
 PW_GRID|   Bounds   1            -27      26                Points:          54
 PW_GRID|   Bounds   2            -27      26                Points:          54
 PW_GRID|   Bounds   3            -27      26                Points:          54
 PW_GRID| Volume element (a.u.^3)  0.5492E-01     Volume (a.u.^3)      8648.2055
 PW_GRID| Grid span                                                    FULLSPACE
 PW_GRID|   Distribution                         Average         Max         Min
 PW_GRID|   G-Vectors                             4920.8        4968        4860
 PW_GRID|   G-Rays                                  91.1          92          90
 PW_GRID|   Real Space Points                     4920.8        5832        2916

 PW_GRID| Information for grid number                                          4
 PW_GRID| Number of the reference grid                                         1
 PW_GRID| Grid distributed over                                    32 processors
 PW_GRID| Real space group dimensions                                    32    1
 PW_GRID| the grid is blocked:                                                NO
 PW_GRID| Cutoff [a.u.]                                                     11.1
 PW_GRID| spherical cutoff:                                                   NO
 PW_GRID|   Bounds   1            -16      15                Points:          32
 PW_GRID|   Bounds   2            -16      15                Points:          32
 PW_GRID|   Bounds   3            -16      15                Points:          32
 PW_GRID| Volume element (a.u.^3)  0.2639         Volume (a.u.^3)      8648.2055
 PW_GRID| Grid span                                                    FULLSPACE
 PW_GRID|   Distribution                         Average         Max         Min
 PW_GRID|   G-Vectors                             1024.0        1120         960
 PW_GRID|   G-Rays                                  32.0          35          30
 PW_GRID|   Real Space Points                     1024.0        1024        1024

 POISSON| Solver                                                        PERIODIC
 POISSON| Periodicity                                                        XYZ

 RS_GRID| Information for grid number                                          1
 RS_GRID|   Bounds   1            -81      80                Points:         162
 RS_GRID|   Bounds   2            -81      80                Points:         162
 RS_GRID|   Bounds   3            -81      80                Points:         162
 RS_GRID| Real space distribution over                                  4 groups
 RS_GRID| Real space distribution along direction                              2
 RS_GRID| Border size                                                         29
 RS_GRID| Real space distribution over                                  8 groups
 RS_GRID| Real space distribution along direction                              3
 RS_GRID| Border size                                                         29
 RS_GRID|   Distribution                         Average         Max         Min
 RS_GRID|   Planes                                  98.5          99          98
 RS_GRID|   Distribution                         Average         Max         Min
 RS_GRID|   Planes                                  78.2          79          78

 RS_GRID| Information for grid number                                          2
 RS_GRID|   Bounds   1            -48      47                Points:          96
 RS_GRID|   Bounds   2            -48      47                Points:          96
 RS_GRID|   Bounds   3            -48      47                Points:          96
 RS_GRID| Real space fully replicated
 RS_GRID| Group size                                                           1

 RS_GRID| Information for grid number                                          3
 RS_GRID|   Bounds   1            -27      26                Points:          54
 RS_GRID|   Bounds   2            -27      26                Points:          54
 RS_GRID|   Bounds   3            -27      26                Points:          54
 RS_GRID| Real space fully replicated
 RS_GRID| Group size                                                           1

 RS_GRID| Information for grid number                                          4
 RS_GRID|   Bounds   1            -16      15                Points:          32
 RS_GRID|   Bounds   2            -16      15                Points:          32
 RS_GRID|   Bounds   3            -16      15                Points:          32
 RS_GRID| Real space fully replicated
 RS_GRID| Group size                                                           1

 Number of electrons:                                                        256
 Number of occupied orbitals:                                                128
 Number of molecular orbitals:                                               144

 Number of orbital functions:                                                832
 Number of independent orbital functions:                                    832

 Extrapolation method: initial_guess

 Atomic guess: The first density matrix is obtained in terms of atomic orbitals
               and electronic configurations assigned to each atomic kind

 Guess for atomic kind: Si

 Electronic structure
    Total number of core electrons                                         10.00
    Total number of valence electrons                                       4.00
    Total number of electrons                                              14.00
    Multiplicity                                                   not specified
    S   [  2.00  2.00] 2.00
    P   [  6.00] 2.00
 

 *******************************************************************************
                  Iteration          Convergence                     Energy [au]
 *******************************************************************************
                          1        0.526541E-01                  -3.659692963728
                          2        0.125823E-01                  -3.661785675622
                          3        0.408986E-04                  -3.661911567360
                          4        0.675570E-07                  -3.661911568709

 Energy components [Hartree]           Total Energy ::           -3.661911568709
                                        Band Energy ::           -0.941881516273
                                     Kinetic Energy ::            1.409736465412
                                   Potential Energy ::           -5.071648034121
                                      Virial (-V/T) ::            3.597585902439
                                        Core Energy ::           -5.690149137281
                                          XC Energy ::           -0.992569238249
                                     Coulomb Energy ::            3.020806806821
                       Total Pseudopotential Energy ::           -7.143143335066
                       Local Pseudopotential Energy ::           -8.006124475851
                    Nonlocal Pseudopotential Energy ::            0.862981140786
                                        Confinement ::            0.432577323720

 Orbital energies  State     L     Occupation   Energy[a.u.]          Energy[eV]

                       1     0          2.000      -0.357276           -9.721984
 
                       1     1          2.000      -0.113664           -3.092965
 

 Total Electron Density at R=0:                                         0.000026
 Re-scaling the density matrix to get the right number of electrons
                  # Electrons              Trace(P)               Scaling factor
                          256               256.000                        1.000


 SCF WAVEFUNCTION OPTIMIZATION

  Step     Update method      Time    Convergence         Total energy    Change
  ------------------------------------------------------------------------------
     1 NoMix/Diag. 0.40E+00    0.2     1.09030452      -254.5760022916 -2.55E+02
     2 Pulay/Diag. 0.40E+00    0.3     0.01639068      -252.3519288773  2.22E+00
     3 Pulay/Diag. 0.40E+00    0.3     0.02301850      -250.7436080186  1.61E+00
     4 Pulay/Diag. 0.40E+00    0.3     0.00032784      -251.6686973892 -9.25E-01
     5 Pulay/Diag. 0.40E+00    0.3     0.00001491      -251.6827768122 -1.41E-02
     6 Pulay/Diag. 0.40E+00    0.3     0.00000017      -251.6830906378 -3.14E-04

  *** SCF run converged in     6 steps ***


  Electronic density on regular grids:       -256.0000000000        0.0000000000
  Core density on regular grids:              255.9999999995       -0.0000000005
  Total charge density on r-space grids:       -0.0000000005
  Total charge density g-space grids:          -0.0000000005

  Overlap energy of the core charge distribution:               0.00000000042431
  Self energy of the core charge distribution:               -656.51151540102558
  Core Hamiltonian energy:                                    139.02825027872132
  Hartree energy:                                             343.07897981460280
  Exchange-correlation energy:                                -77.27880521627989
  Electronic entropic energy:                                  -0.00000011423171
  Fermi energy:                                                 0.20715272647435

  Total energy:                                              -251.68309063779157

 !-----------------------------------------------------------------------------!
                     Mulliken Population Analysis

 #  Atom  Element  Kind  Atomic population                           Net charge
       1     Si       1          4.000000                              0.000000
       2     Si       1          4.000000                             -0.000000
       3     Si       1          4.000000                             -0.000000
       4     Si       1          4.000000                             -0.000000
       5     Si       1          4.000000                              0.000000
       6     Si       1          4.000000                              0.000000
       7     Si       1          4.000000                              0.000000
       8     Si       1          4.000000                              0.000000
       9     Si       1          4.000000                              0.000000
      10     Si       1          4.000000                             -0.000000
      11     Si       1          4.000000                             -0.000000
      12     Si       1          4.000000                             -0.000000
      13     Si       1          4.000000                              0.000000
      14     Si       1          4.000000                              0.000000
      15     Si       1          4.000000                              0.000000
      16     Si       1          4.000000                              0.000000
      17     Si       1          4.000000                              0.000000
      18     Si       1          4.000000                             -0.000000
      19     Si       1          4.000000                             -0.000000
      20     Si       1          4.000000                             -0.000000
      21     Si       1          4.000000                              0.000000
      22     Si       1          4.000000                              0.000000
      23     Si       1          4.000000                              0.000000
      24     Si       1          4.000000                              0.000000
      25     Si       1          4.000000                              0.000000
      26     Si       1          4.000000                             -0.000000
      27     Si       1          4.000000                             -0.000000
      28     Si       1          4.000000                             -0.000000
      29     Si       1          4.000000                              0.000000
      30     Si       1          4.000000                              0.000000
      31     Si       1          4.000000                              0.000000
      32     Si       1          4.000000                              0.000000
      33     Si       1          4.000000                              0.000000
      34     Si       1          4.000000                             -0.000000
      35     Si       1          4.000000                             -0.000000
      36     Si       1          4.000000                             -0.000000
      37     Si       1          4.000000                              0.000000
      38     Si       1          4.000000                              0.000000
      39     Si       1          4.000000                              0.000000
      40     Si       1          4.000000                              0.000000
      41     Si       1          4.000000                              0.000000
      42     Si       1          4.000000                             -0.000000
      43     Si       1          4.000000                             -0.000000
      44     Si       1          4.000000                             -0.000000
      45     Si       1          4.000000                              0.000000
      46     Si       1          4.000000                              0.000000
      47     Si       1          4.000000                              0.000000
      48     Si       1          4.000000                              0.000000
      49     Si       1          4.000000                              0.000000
      50     Si       1          4.000000                             -0.000000
      51     Si       1          4.000000                             -0.000000
      52     Si       1          4.000000                             -0.000000
      53     Si       1          4.000000                              0.000000
      54     Si       1          4.000000                              0.000000
      55     Si       1          4.000000                              0.000000
      56     Si       1          4.000000                              0.000000
      57     Si       1          4.000000                              0.000000
      58     Si       1          4.000000                             -0.000000
      59     Si       1          4.000000                             -0.000000
      60     Si       1          4.000000                             -0.000000
      61     Si       1          4.000000                              0.000000
      62     Si       1          4.000000                              0.000000
      63     Si       1          4.000000                              0.000000
      64     Si       1          4.000000                              0.000000
 # Total charge                            256.000000                  0.000000

 !-----------------------------------------------------------------------------!

 !-----------------------------------------------------------------------------!
                           Hirshfeld Charges

  #Atom  Element  Kind  Ref Charge     Population                    Net charge
      1       Si     1       4.000          4.000                         0.000
      2       Si     1       4.000          4.000                        -0.000
      3       Si     1       4.000          4.000                        -0.000
      4       Si     1       4.000          4.000                        -0.000
      5       Si     1       4.000          4.000                         0.000
      6       Si     1       4.000          4.000                         0.000
      7       Si     1       4.000          4.000                         0.000
      8       Si     1       4.000          4.000                         0.000
      9       Si     1       4.000          4.000                         0.000
     10       Si     1       4.000          4.000                        -0.000
     11       Si     1       4.000          4.000                        -0.000
     12       Si     1       4.000          4.000                        -0.000
     13       Si     1       4.000          4.000                         0.000
     14       Si     1       4.000          4.000                         0.000
     15       Si     1       4.000          4.000                         0.000
     16       Si     1       4.000          4.000                         0.000
     17       Si     1       4.000          4.000                         0.000
     18       Si     1       4.000          4.000                        -0.000
     19       Si     1       4.000          4.000                        -0.000
     20       Si     1       4.000          4.000                        -0.000
     21       Si     1       4.000          4.000                         0.000
     22       Si     1       4.000          4.000                         0.000
     23       Si     1       4.000          4.000                         0.000
     24       Si     1       4.000          4.000                         0.000
     25       Si     1       4.000          4.000                         0.000
     26       Si     1       4.000          4.000                        -0.000
     27       Si     1       4.000          4.000                        -0.000
     28       Si     1       4.000          4.000                        -0.000
     29       Si     1       4.000          4.000                         0.000
     30       Si     1       4.000          4.000                         0.000
     31       Si     1       4.000          4.000                         0.000
     32       Si     1       4.000          4.000                         0.000
     33       Si     1       4.000          4.000                         0.000
     34       Si     1       4.000          4.000                        -0.000
     35       Si     1       4.000          4.000                        -0.000
     36       Si     1       4.000          4.000                        -0.000
     37       Si     1       4.000          4.000                         0.000
     38       Si     1       4.000          4.000                         0.000
     39       Si     1       4.000          4.000                         0.000
     40       Si     1       4.000          4.000                         0.000
     41       Si     1       4.000          4.000                         0.000
     42       Si     1       4.000          4.000                        -0.000
     43       Si     1       4.000          4.000                        -0.000
     44       Si     1       4.000          4.000                        -0.000
     45       Si     1       4.000          4.000                         0.000
     46       Si     1       4.000          4.000                         0.000
     47       Si     1       4.000          4.000                         0.000
     48       Si     1       4.000          4.000                         0.000
     49       Si     1       4.000          4.000                         0.000
     50       Si     1       4.000          4.000                        -0.000
     51       Si     1       4.000          4.000                        -0.000
     52       Si     1       4.000          4.000                        -0.000
     53       Si     1       4.000          4.000                         0.000
     54       Si     1       4.000          4.000                         0.000
     55       Si     1       4.000          4.000                         0.000
     56       Si     1       4.000          4.000                         0.000
     57       Si     1       4.000          4.000                         0.000
     58       Si     1       4.000          4.000                        -0.000
     59       Si     1       4.000          4.000                        -0.000
     60       Si     1       4.000          4.000                        -0.000
     61       Si     1       4.000          4.000                         0.000
     62       Si     1       4.000          4.000                         0.000
     63       Si     1       4.000          4.000                         0.000
     64       Si     1       4.000          4.000                         0.000

  Total Charge                                                           -0.000
 !-----------------------------------------------------------------------------!

 ENERGY| Total FORCE_EVAL ( QS ) energy [a.u.]:             -251.683090637791565

 -------------------------------------------------------------------------------
 -                                                                             -
 -                                DBCSR STATISTICS                             -
 -                                                                             -
 -------------------------------------------------------------------------------
 COUNTER                                    TOTAL       BLAS       SMM       ACC
 flops    13 x    13 x    16             67491840       0.0%    100.0%      0.0%     
 flops    13 x    13 x    32            539934720       0.0%    100.0%      0.0%     
 flops inhomo. stacks                           0       0.0%      0.0%      0.0%
 flops total                       607.426560E+06       0.0%    100.0%      0.0%
 flops max/rank                     20.734272E+06       0.0%    100.0%      0.0%
 matmuls inhomo. stacks                         0       0.0%      0.0%      0.0%
 matmuls total                              62400       0.0%    100.0%      0.0%
 number of processed stacks                   960       0.0%    100.0%      0.0%
 average stack size                                     0.0      65.0       0.0
 marketing flops                     1.113096E+09
 -------------------------------------------------------------------------------
 # multiplications                              6
 max memory usage/rank             532.905984E+06
 # max total images/rank                        2
 # max 3D layers                                1
 # MPI messages exchanged                    2496
 MPI messages size (bytes):
  total size                        57.507840E+06
  min size                           0.000000E+00
  max size                          53.248000E+03
  average size                      23.040000E+03
 MPI breakdown and total messages size (bytes):
             size <=      128                 936                        0
       128 < size <=     8192                   0                        0
      8192 < size <=    32768                 888                 21725184
     32768 < size <=   131072                 672                 35782656
    131072 < size <=  4194304                   0                        0
   4194304 < size <= 16777216                   0                        0
  16777216 < size                               0                        0
 -------------------------------------------------------------------------------

 *** WARNING in dbcsr_mm.F:301 :: Using a non-square number of MPI ranks ***
 *** might lead to poor performance. Used ranks: 32 Suggested: 36 64     ***

 -------------------------------------------------------------------------------
 -                                                                             -
 -                      DBCSR MESSAGE PASSING PERFORMANCE                      -
 -                                                                             -
 -------------------------------------------------------------------------------
 ROUTINE             CALLS      AVE VOLUME [Bytes]
 MP_Bcast                3                     12.
 MP_Allreduce           66                     13.
 MP_Alltoall           180                  50682.
 MP_ISend              192                  12194.
 MP_IRecv              192                   8854.
 -------------------------------------------------------------------------------

 -------------------------------------------------------------------------------
 -                                                                             -
 -                                DBM STATISTICS                               -
 -                                                                             -
 -------------------------------------------------------------------------------
    M  x    N  x    K                                          COUNT     PERCENT
 -------------------------------------------------------------------------------

 -------------------------------------------------------------------------------
 -                                                                             -
 -                                GRID STATISTICS                              -
 -                                                                             -
 -------------------------------------------------------------------------------
 LP    KERNEL             BACKEND                              COUNT     PERCENT
 4     collocate ortho    CPU                                 536256      53.52%
 4     integrate ortho    CPU                                 459648      45.87%
 0     collocate general  CPU                                   4096       0.41%
 0     integrate general  CPU                                   2048       0.20%
 -------------------------------------------------------------------------------

 MEMORY| Estimated peak process memory [MiB]                                 515

 -------------------------------------------------------------------------------
 ----                             MULTIGRID INFO                            ----
 -------------------------------------------------------------------------------
 count for grid        1:              0          cutoff [a.u.]          300.00
 count for grid        2:          37696          cutoff [a.u.]          100.00
 count for grid        3:          43264          cutoff [a.u.]           33.33
 count for grid        4:          49408          cutoff [a.u.]           11.11
 total gridlevel count  :         130368

 -------------------------------------------------------------------------------
 -                                                                             -
 -                         MESSAGE PASSING PERFORMANCE                         -
 -                                                                             -
 -------------------------------------------------------------------------------

 ROUTINE             CALLS      AVE VOLUME [Bytes]
 MP_Group                4
 MP_Bcast               41                4558912.
 MP_Allreduce          536                    913.
 MP_Sync                10
 MP_Alltoall           138                4761832.
 MP_SendRecv           651                  92011.
 MP_ISendRecv          558                  92011.
 MP_Wait              1230
 MP_ISend              608                 261734.
 MP_IRecv              608                 261270.
 -------------------------------------------------------------------------------


 -------------------------------------------------------------------------------
 -                                                                             -
 -                           R E F E R E N C E S                               -
 -                                                                             -
 -------------------------------------------------------------------------------
 
 CP2K version 2024.3, the CP2K developers group (2024).
 CP2K is freely available from https://www.cp2k.org/ .
 
 T. D. Kuehne, M. Iannuzzi, M. Del Ben, V. V. Rybkin, P. Seewald, F. Stein, T. 
 Laino, R. Z. Khaliullin, O. Schuett, F. Schiffmann, D. Golze, J. Wilhelm, S. 
 Chulkov, M. H. Bani-Hashemian, V. Weber, U. Borstnik, M. Taillefumier, A. S. 
 Jakobovits, A. Lazzaro, H. Pabst, T. Mueller, R. Schade, M. Guidon, S. 
 Andermatt, N. Holmberg, G. K. Schenter, A. Hehn, A. Bussy, F. Belleflamme, G. 
 Tabacchi, A. Gloess, M. Lass, I. Bethune, C. J. Mundy, C. Plessl, M. Watkins, 
 J. VandeVondele, M. Krack, J. Hutter.
 J. Chem. Phys. 152, 194103 (2020).
 CP2K: An electronic structure and molecular dynamics software package - 
 Quickstep: Efficient and accurate electronic structure calculations.
 https://doi.org/10.1063/5.0007045

 O. Schuett, P. Messmer, J. Hutter, J. VandeVondele.
 Electronic Structure Calculations on Graphics Processing Units, 173-190 (2016).
 GPU-Accelerated Sparse Matrix-Matrix Multiplication for Linear Scaling Density 
 Functional Theory.
 https://doi.org/10.1002/9781118670712.ch8

 A. Heinecke, G. Henry, M. Hutchinson, H. Pabst.
 Proceedings of Intl. Supercomputing Conference, 981-991 (2016).
 LIBXSMM: Accelerating Small Matrix Multiplications by Runtime Code Generation.
 https://doi.org/10.1109/SC.2016.83

 J. Hutter, M. Iannuzzi, F. Schiffmann, J. VandeVondele.
 WIREs Comput Mol Sci. 4, 15-25 (2014).
 CP2K: atomistic simulations of condensed matter systems.
 https://doi.org/10.1002/wcms.1159

 U. Borstnik, J. VandeVondele, V. Weber, J. Hutter.
 Parallel Comput. 40, 47-58 (2014).
 Sparse matrix multiplication: The distributed block-compressed sparse row 
 library.
 https://doi.org/10.1016/j.parco.2014.03.012

 A. Marek, V. Blum, R. Johanni, V. Havu, B. Lang, T. Auckenthaler, A. Heinecke, 
 H. Bungartz, H. Lederer.
 J. Phys. Condens. Matter 26, 213201 (2014).
 The ELPA library: scalable parallel eigenvalue solutions for electronic 
 structure theory and computational science.
 https://doi.org/10.1088/0953-8984/26/21/213201

 J. VandeVondele, J. Hutter.
 J. Chem. Phys. 127, 114105 (2007).
 Gaussian basis sets for accurate calculations on molecular systems in gas and 
 condensed phases.
 https://doi.org/10.1063/1.2770708

 J. VandeVondele, M. Krack, F. Mohamed, M. Parrinello, T. Chassaing, J. Hutter.
 Comput. Phys. Commun. 167, 103-128 (2005).
 QUICKSTEP: Fast and accurate density functional calculations using a mixed 
 Gaussian and plane waves approach.
 https://doi.org/10.1016/j.cpc.2004.12.014

 M. Krack.
 Theor. Chem. Acc. 114, 145-152 (2005).
 Pseudopotentials for H to Kr optimized for gradient-corrected 
 exchange-correlation functionals.
 https://doi.org/10.1007/s00214-005-0655-y

 M. Frigo, S. G. Johnson.
 Proc. IEEE 93, 216-231 (2005).
 The design and implementation of FFTW3.
 https://doi.org/10.1109/JPROC.2004.840301

 C. Hartwigsen, S. Goedecker, J. Hutter.
 Phys. Rev. B 58, 3641-3662 (1998).
 Relativistic separable dual-space Gaussian pseudopotentials from H to Rn.
 https://doi.org/10.1103/PhysRevB.58.3641

 G. Lippert, J. Hutter, M. Parrinello.
 Mol. Phys. 92, 477-487 (1997).
 A hybrid Gaussian and plane wave density functional scheme.
 https://doi.org/10.1080/002689797170220

 S. Goedecker, M. Teter, J. Hutter.
 Phys. Rev. B 54, 1703-1710 (1996).
 Separable dual-space Gaussian pseudopotentials.
 https://doi.org/10.1103/PhysRevB.54.1703

 J. P. Perdew, K. Burke, M. Ernzerhof.
 Phys. Rev. Lett. 77, 3865-3868 (1996).
 Generalized gradient approximation made simple.
 https://doi.org/10.1103/PhysRevLett.77.3865


 -------------------------------------------------------------------------------
 -                                                                             -
 -                                T I M I N G                                  -
 -                                                                             -
 -------------------------------------------------------------------------------
 SUBROUTINE                       CALLS  ASD         SELF TIME        TOTAL TIME
                                MAXIMUM       AVERAGE  MAXIMUM  AVERAGE  MAXIMUM
 CP2K                                 1  1.0    0.008    0.030    2.378    2.379
 qs_energies                          1  2.0    0.000    0.000    2.251    2.252
 scf_env_do_scf                       1  3.0    0.000    0.000    1.962    1.962
 scf_env_do_scf_inner_loop            6  4.0    0.000    0.001    1.962    1.962
 qs_ks_update_qs_env                  6  5.0    0.000    0.000    1.191    1.191
 rebuild_ks_matrix                    6  6.0    0.000    0.000    1.190    1.190
 qs_ks_build_kohn_sham_matrix         6  7.0    0.001    0.001    1.190    1.190
 qs_rho_update_rho_low                7  5.0    0.000    0.000    0.668    0.668
 calculate_rho_elec                   7  6.0    0.002    0.002    0.668    0.668
 sum_up_and_integrate                 6  8.0    0.000    0.000    0.581    0.581
 integrate_v_rspace                   6  9.0    0.000    0.000    0.579    0.579
 fft_wrap_pw1pw2                    113 10.0    0.001    0.001    0.571    0.576
 fft_wrap_pw1pw2_300                 74 11.3    0.022    0.023    0.551    0.557
 qs_vxc_create                        6  8.0    0.000    0.000    0.518    0.521
 xc_vxc_pw_create                     6  9.0    0.007    0.008    0.518    0.521
 fft3d_ps                           113 12.0    0.273    0.302    0.465    0.470
 grid_collocate_task_list             7  7.0    0.435    0.448    0.435    0.448
 grid_integrate_task_list             6 10.0    0.377    0.388    0.377    0.388
 xc_pw_derive                        36 11.0    0.000    0.000    0.320    0.323
 xc_rho_set_and_dset_create           6 10.0    0.005    0.005    0.295    0.320
 density_rs2pw                        7  7.0    0.000    0.000    0.229    0.244
 xc_pw_divergence                     6 10.0    0.000    0.000    0.212    0.215
 potential_pw2rs                      6 10.0    0.000    0.000    0.191    0.191
 transfer_rs2pw                      30  7.9    0.000    0.000    0.142    0.165
 mp_alltoall_z22v                   113 14.0    0.142    0.152    0.142    0.152
 transfer_pw2rs                      25 10.8    0.000    0.000    0.150    0.151
 xc_functional_eval                   6 11.0    0.000    0.000    0.126    0.150
 pbe_lda_eval                         6 12.0    0.126    0.150    0.126    0.150
 qs_scf_new_mos                       6  5.0    0.000    0.000    0.135    0.135
 init_scf_run                         1  3.0    0.000    0.000    0.125    0.125
 eigensolver                          6  6.0    0.000    0.000    0.120    0.120
 qs_energies_init_hamiltonians        1  3.0    0.000    0.000    0.120    0.120
 scf_env_initial_rho_setup            1  4.0    0.000    0.000    0.119    0.119
 x_to_yz                             60 13.2    0.035    0.040    0.105    0.116
 transfer_rs2pw_300                   9  8.7    0.031    0.034    0.092    0.114
 transfer_pw2rs_300                   7 11.4    0.027    0.029    0.097    0.099
 cp_fm_diag_elpa                      6  7.0    0.000    0.000    0.096    0.096
 cp_fm_diag_elpa_base                 6  8.0    0.094    0.095    0.095    0.095
 mp_waitany                         608 10.9    0.067    0.091    0.067    0.091
 yz_to_x                             53 12.7    0.014    0.015    0.086    0.090
 build_core_hamiltonian_matrix        1  4.0    0.000    0.000    0.065    0.078
 gspace_mixing                        5  5.0    0.001    0.002    0.078    0.078
 qs_init_subsys                       1  2.0    0.000    0.002    0.069    0.069
 qs_env_setup                         1  3.0    0.000    0.000    0.067    0.067
 qs_env_rebuild_pw_env                2  3.5    0.000    0.000    0.066    0.066
 pw_env_rebuild                       1  5.0    0.000    0.001    0.066    0.066
 pw_grid_setup                        4  6.0    0.000    0.000    0.061    0.062
 pw_grid_setup_internal               4  7.0    0.001    0.004    0.061    0.062
 qs_env_update_s_mstruct              1  4.0    0.000    0.000    0.053    0.062
 pw_derive                           54 11.3    0.059    0.060    0.059    0.060
 rs_grid_zero                         9 11.1    0.058    0.059    0.058    0.059
 calculate_rho_core                   1  5.0    0.001    0.001    0.047    0.056
 -------------------------------------------------------------------------------

 The number of warnings for this run is : 1
 
 -------------------------------------------------------------------------------
  **** **** ******  **  PROGRAM ENDED AT                 2026-06-28 11:38:01.975
 ***** ** ***  *** **   PROGRAM RAN ON                                      cu07
 **    ****   ******    PROGRAM RAN BY                                     rudin
 ***** **    ** ** **   PROGRAM PROCESS ID                               1327138
  **** **  *******  **  PROGRAM STOPPED IN /home/rudin/code/kylin-pbc/art/exampl
                                           e/scaling/Si64-PBE
