 DBCSR| CPU Multiplication driver                                           XSMM (U)
 DBCSR| Multrec recursion limit                                              512 (U)
 DBCSR| Multiplication stack size                                           1000 (D)
 DBCSR| Maximum elements for images                                    UNLIMITED (U)
 DBCSR| Multiplicative factor virtual images                                   1 (U)
 DBCSR| Use multiplication densification                                       T (D)
 DBCSR| Multiplication size stacks                                             3 (U)
 DBCSR| Use memory pool for CPU allocation                                     F (U)
 DBCSR| Number of 3D layers                                               SINGLE (U)
 DBCSR| Use MPI memory allocation                                              F (U)
 DBCSR| Use RMA algorithm                                                      F (U)
 DBCSR| Use Communication thread                                               T (U)
 DBCSR| Communication thread load                                             87 (D)
 DBCSR| MPI: My process id                                                     0
 DBCSR| MPI: Number of processes                                              32
 DBCSR| OMP: Current number of threads                                         1
 DBCSR| OMP: Max number of threads                                             1
 DBCSR| Split modifier for TAS multiplication algorithm                  1.0E+00 (U)


  **** **** ******  **  PROGRAM STARTED AT               2026-06-28 02:03:05.734
 ***** ** ***  *** **   PROGRAM STARTED ON                                  cu03
 **    ****   ******    PROGRAM STARTED BY                                 rudin
 ***** **    ** ** **   PROGRAM PROCESS ID                                190918
  **** **  *******  **  PROGRAM STARTED IN /home/rudin/code/kylin-pbc/art/exampl
                                           e/scaling/Si16-HSE06

 CP2K| version string:                                       CP2K version 2024.3
 CP2K| source code revision number:                                  git:6712648
 CP2K| cp2kflags: omp libint fftw3 libxc libgrpp elpa parallel scalapack mpi_f08
 CP2K|             cosma xsmm plumed2 spglib mkl libvori libbqb
 CP2K| is freely available from                            https://www.cp2k.org/
 CP2K| Program compiled at            2026年 01月 07日 星期三 01:43:54 CST
 CP2K| Program compiled on                                                  mu01
 CP2K| Program compiled for                                                local
 CP2K| Data directory path    /software/Applications/cp2k/cp2k-2024.3-oneapi-202
 CP2K| Input file name                                                  cp2k.inp
 
 GLOBAL| Force Environment number                                              1
 GLOBAL| Basis set file name                                        BASIS_MOLOPT
 GLOBAL| Potential file name                                      GTH_POTENTIALS
 GLOBAL| MM Potential file name                                     MM_POTENTIAL
 GLOBAL| Coordinate file name                                      __STD_INPUT__
 GLOBAL| Method name                                                        CP2K
 GLOBAL| Project name                                            Si16-HSE06-ADMM
 GLOBAL| Run type                                                         ENERGY
 GLOBAL| FFT library                                                       FFTW3
 GLOBAL| Diagonalization library                                            ELPA
 GLOBAL| DGEMM library                                                      BLAS
 GLOBAL| Minimum number of eigenvectors for ELPA usage                        16
 GLOBAL| Orthonormality check for eigenvectors                          DISABLED
 GLOBAL| Matrix multiplication library                                     COSMA
 GLOBAL| All-to-all communication in single precision                          F
 GLOBAL| FFTs using library dependent lengths                                  F
 GLOBAL| Grid backend                                                       AUTO
 GLOBAL| Global print level                                               MEDIUM
 GLOBAL| MPI I/O enabled                                                       T
 GLOBAL| Total number of message passing processes                            32
 GLOBAL| Number of threads for this process                                    1
 GLOBAL| This output is from process                                           0
 GLOBAL| Stack size for threads created by OpenMP (OMP_STACKSIZE)        default
 GLOBAL| CPU model name                              INTEL(R) XEON(R) GOLD 6544Y
 GLOBAL| CPUID                                                              1003

 MEMORY| system memory details [Kb]
 MEMORY|                        rank 0           min           max       average
 MEMORY| MemTotal            527979308     527979308     527979308     527979308
 MEMORY| MemFree             134733784     134733784     134733784     134733784
 MEMORY| Buffers              20261360      20261360      20261360      20261360
 MEMORY| Cached              346599172     346599172     346599172     346599172
 MEMORY| Slab                 20247508      20247508      20247508      20247508
 MEMORY| SReclaimable         16629880      16629880      16629880      16629880
 MEMORY| MemLikelyFree       518224196     518224196     518224196     518224196


 *** Fundamental physical constants (SI units) ***

 *** Literature: B. J. Mohr and B. N. Taylor,
 ***             CODATA recommended values of the fundamental physical
 ***             constants: 2006, Web Version 5.1
 ***             http://physics.nist.gov/constants

 Speed of light in vacuum [m/s]                             2.99792458000000E+08
 Magnetic constant or permeability of vacuum [N/A**2]       1.25663706143592E-06
 Electric constant or permittivity of vacuum [F/m]          8.85418781762039E-12
 Planck constant (h) [J*s]                                  6.62606896000000E-34
 Planck constant (h-bar) [J*s]                              1.05457162825177E-34
 Elementary charge [C]                                      1.60217648700000E-19
 Electron mass [kg]                                         9.10938215000000E-31
 Electron g factor [ ]                                     -2.00231930436220E+00
 Proton mass [kg]                                           1.67262163700000E-27
 Fine-structure constant                                    7.29735253760000E-03
 Rydberg constant [1/m]                                     1.09737315685270E+07
 Avogadro constant [1/mol]                                  6.02214179000000E+23
 Boltzmann constant [J/K]                                   1.38065040000000E-23
 Atomic mass unit [kg]                                      1.66053878200000E-27
 Bohr radius [m]                                            5.29177208590000E-11

 *** Conversion factors ***

 [u] -> [a.u.]                                              1.82288848426455E+03
 [Angstrom] -> [Bohr] = [a.u.]                              1.88972613288564E+00
 [a.u.] = [Bohr] -> [Angstrom]                              5.29177208590000E-01
 [a.u.] -> [s]                                              2.41888432650478E-17
 [a.u.] -> [fs]                                             2.41888432650478E-02
 [a.u.] -> [J]                                              4.35974393937059E-18
 [a.u.] -> [N]                                              8.23872205491840E-08
 [a.u.] -> [K]                                              3.15774647902944E+05
 [a.u.] -> [kJ/mol]                                         2.62549961709828E+03
 [a.u.] -> [kcal/mol]                                       6.27509468713739E+02
 [a.u.] -> [Pa]                                             2.94210107994716E+13
 [a.u.] -> [bar]                                            2.94210107994716E+08
 [a.u.] -> [atm]                                            2.90362800883016E+08
 [a.u.] -> [eV]                                             2.72113838565563E+01
 [a.u.] -> [Hz]                                             6.57968392072181E+15
 [a.u.] -> [1/cm] (wave numbers)                            2.19474631370540E+05
 [a.u./Bohr**2] -> [1/cm]                                   5.14048714338585E+03
 

 CELL_TOP| Volume [angstrom^3]:                                       320.382956
 CELL_TOP| Vector a [angstrom     5.431     0.000     0.000   |a| =     5.431000
 CELL_TOP| Vector b [angstrom     0.000     5.431     0.000   |b| =     5.431000
 CELL_TOP| Vector c [angstrom     0.000     0.000    10.862   |c| =    10.862000
 CELL_TOP| Angle (b,c), alpha [degree]:                                90.000000
 CELL_TOP| Angle (a,c), beta  [degree]:                                90.000000
 CELL_TOP| Angle (a,b), gamma [degree]:                                90.000000
 CELL_TOP| Numerically orthorhombic:                                         YES
 CELL_TOP| Periodicity                                                       XYZ
 
 GENERATE|  Preliminary Number of Bonds generated:                             0
 GENERATE|  Achieved consistency in connectivity generation.

 CELL| Volume [angstrom^3]:                                           320.382956
 CELL| Vector a [angstrom]:       5.431     0.000     0.000   |a| =     5.431000
 CELL| Vector b [angstrom]:       0.000     5.431     0.000   |b| =     5.431000
 CELL| Vector c [angstrom]:       0.000     0.000    10.862   |c| =    10.862000
 CELL| Angle (b,c), alpha [degree]:                                    90.000000
 CELL| Angle (a,c), beta  [degree]:                                    90.000000
 CELL| Angle (a,b), gamma [degree]:                                    90.000000
 CELL| Numerically orthorhombic:                                             YES
 CELL| Periodicity                                                           XYZ

 CELL_REF| Volume [angstrom^3]:                                       320.382956
 CELL_REF| Vector a [angstrom     5.431     0.000     0.000   |a| =     5.431000
 CELL_REF| Vector b [angstrom     0.000     5.431     0.000   |b| =     5.431000
 CELL_REF| Vector c [angstrom     0.000     0.000    10.862   |c| =    10.862000
 CELL_REF| Angle (b,c), alpha [degree]:                                90.000000
 CELL_REF| Angle (a,c), beta  [degree]:                                90.000000
 CELL_REF| Angle (a,b), gamma [degree]:                                90.000000
 CELL_REF| Numerically orthorhombic:                                         YES
 CELL_REF| Periodicity                                                       XYZ

 *******************************************************************************
 *******************************************************************************
 **                                                                           **
 **     #####                         ##              ##                      **
 **    ##   ##            ##          ##              ##                      **
 **   ##     ##                       ##            ######                    **
 **   ##     ##  ##   ##  ##   #####  ##  ##   ####   ##    #####    #####    **
 **   ##     ##  ##   ##  ##  ##      ## ##   ##      ##   ##   ##  ##   ##   **
 **   ##  ## ##  ##   ##  ##  ##      ####     ###    ##   ######   ######    **
 **    ##  ###   ##   ##  ##  ##      ## ##      ##   ##   ##       ##        **
 **     #######   #####   ##   #####  ##  ##  ####    ##    #####   ##        **
 **           ##                                                    ##        **
 **                                                                           **
 **                                                ... make the atoms dance   **
 **                                                                           **
 **            Copyright (C) by CP2K developers group (2000-2024)             **
 **                      J. Chem. Phys. 152, 194103 (2020)                    **
 **                                                                           **
 *******************************************************************************

 DFT| Spin restricted Kohn-Sham (RKS) calculation                            RKS
 DFT| Multiplicity                                                             1
 DFT| Number of spin states                                                    1
 DFT| Charge                                                                   0
 DFT| Self-interaction correction (SIC)                                       NO
 DFT| Cutoffs: density                                              1.000000E-10
 DFT|          gradient                                             1.000000E-10
 DFT|          tau                                                  1.000000E-10
 DFT|          cutoff_smoothing_range                               0.000000E+00
 DFT| XC density smoothing                                                  NONE
 DFT| XC derivatives                                                          PW

 FUNCTIONAL| PBE:
 FUNCTIONAL| J.P.Perdew, K.Burke, M.Ernzerhof, Phys. Rev. Letter, vol. 77, n 18,
 FUNCTIONAL|  pp. 3865-3868, (1996)sx=0.000sc=1.000{spin unpolarized}           
 FUNCTIONAL| XWPBE:
 FUNCTIONAL| Jochen Heyd and Gustavo E. Scuseria, J. Chem. Phys., 120, 7274 {LDA
 FUNCTIONAL|  version}                                                          


 QS| Method:                                                                 GPW
 QS| Density plane wave grid type                        NON-SPHERICAL FULLSPACE
 QS| Number of grid levels:                                                    4
 QS| Density cutoff [a.u.]:                                                300.0
 QS| Multi grid cutoff [a.u.]: 1) grid level                               300.0
 QS|                           2) grid level                               100.0
 QS|                           3) grid level                                33.3
 QS|                           4) grid level                                11.1
 QS| Grid level progression factor:                                          3.0
 QS| Relative density cutoff [a.u.]:                                        30.0
 QS| Interaction thresholds: eps_pgf_orb:                                1.0E-06
 QS|                         eps_filter_matrix:                          0.0E+00
 QS|                         eps_core_charge:                            1.0E-14
 QS|                         eps_rho_gspace:                             1.0E-12
 QS|                         eps_rho_rspace:                             1.0E-12
 QS|                         eps_gvg_rspace:                             1.0E-06
 QS|                         eps_ppl:                                    1.0E-02
 QS|                         eps_ppnl:                                   1.0E-08

 ADMM| Specific ADMM type specified                                        ADMMS
 ADMM| Density matrix purification method                                   NONE
 ADMM| Orbital projection with charge constrain
 ADMM| Use Merlot (2014) scaling model
 ADMM| eps_filter                                                0.000000000    
 ADMM| Exchange functional in correction term                            (W)PBEX



 ATOMIC KIND INFORMATION

  1. Atomic kind: Si                                    Number of atoms:      16

     Orbital Basis Set                                        DZVP-MOLOPT-SR-GTH

       Number of orbital shell sets:                                           1
       Number of orbital shells:                                               5
       Number of primitive Cartesian functions:                                4
       Number of Cartesian basis functions:                                   14
       Number of spherical basis functions:                                   13
       Norm type:                                                              2

       Normalised Cartesian orbitals:

                        Set   Shell   Orbital            Exponent    Coefficient

                          1       1    2s                1.256768       0.294045
                                                         0.506394      -0.015884
                                                         0.238884      -0.207657
                                                         0.087337      -0.036225

                          1       2    3s                1.256768      -1.532347
                                                         0.506394       0.524539
                                                         0.238884       0.025013
                                                         0.087337      -0.052203

                          1       3    3px               1.256768       0.152274
                                                         0.506394      -0.154145
                                                         0.238884      -0.115581
                                                         0.087337      -0.028372
                          1       3    3py               1.256768       0.152274
                                                         0.506394      -0.154145
                                                         0.238884      -0.115581
                                                         0.087337      -0.028372
                          1       3    3pz               1.256768       0.152274
                                                         0.506394      -0.154145
                                                         0.238884      -0.115581
                                                         0.087337      -0.028372

                          1       4    4px               1.256768       0.313378
                                                         0.506394      -0.415360
                                                         0.238884      -0.022539
                                                         0.087337       0.078473
                          1       4    4py               1.256768       0.313378
                                                         0.506394      -0.415360
                                                         0.238884      -0.022539
                                                         0.087337       0.078473
                          1       4    4pz               1.256768       0.313378
                                                         0.506394      -0.415360
                                                         0.238884      -0.022539
                                                         0.087337       0.078473

                          1       5    4dx2              1.256768       0.325879
                                                         0.506394       0.163831
                                                         0.238884       0.044076
                                                         0.087337       0.010608
                          1       5    4dxy              1.256768       0.564439
                                                         0.506394       0.283764
                                                         0.238884       0.076342
                                                         0.087337       0.018373
                          1       5    4dxz              1.256768       0.564439
                                                         0.506394       0.283764
                                                         0.238884       0.076342
                                                         0.087337       0.018373
                          1       5    4dy2              1.256768       0.325879
                                                         0.506394       0.163831
                                                         0.238884       0.044076
                                                         0.087337       0.010608
                          1       5    4dyz              1.256768       0.564439
                                                         0.506394       0.283764
                                                         0.238884       0.076342
                                                         0.087337       0.018373
                          1       5    4dz2              1.256768       0.325879
                                                         0.506394       0.163831
                                                         0.238884       0.044076
                                                         0.087337       0.010608

     Auxiliary Fit Basis Set                                              cpFIT3

       Number of orbital shell sets:                                           5
       Number of orbital shells:                                               5
       Number of primitive Cartesian functions:                                7
       Number of Cartesian basis functions:                                   14
       Number of spherical basis functions:                                   13
       Norm type:                                                              2

       Normalised Cartesian orbitals:

                        Set   Shell   Orbital            Exponent    Coefficient

                          1       1    1px               0.089490       0.069768
                          1       1    1py               0.089490       0.069768
                          1       1    1pz               0.089490       0.069768

                          2       1    1s                0.096480       0.123378

                          3       1    1s                0.246960      -0.309315
                                                         1.277560       0.429908

                          4       1    1px               0.295630       0.313983
                                                         2.202470      -0.124968
                          4       1    1py               0.295630       0.313983
                                                         2.202470      -0.124968
                          4       1    1pz               0.295630       0.313983
                                                         2.202470      -0.124968

                          5       1    1dx2              0.450000       0.406941
                          5       1    1dxy              0.450000       0.704842
                          5       1    1dxz              0.450000       0.704842
                          5       1    1dy2              0.450000       0.406941
                          5       1    1dyz              0.450000       0.704842
                          5       1    1dz2              0.450000       0.406941

     RI HFX Basis Set                                           Si-RI-AUX-cpFIT3

       Number of orbital shell sets:                                           2
       Number of orbital shells:                                              19
       Number of primitive Cartesian functions:                                7
       Number of Cartesian basis functions:                                   70
       Number of spherical basis functions:                                   61
       Norm type:                                                              2

       Normalised Cartesian orbitals:

                        Set   Shell   Orbital            Exponent    Coefficient

                          1       1    1s                3.381949       1.777401
                                                         1.878860       0.000000
                                                         1.043811       0.000000
                                                         0.579895       0.000000
                                                         0.322164       0.000000
                                                         0.178980       0.000000

                          1       2    2s                3.381949      -4.815164
                                                         1.878860       3.302892
                                                         1.043811       0.000000
                                                         0.579895       0.000000
                                                         0.322164       0.000000
                                                         0.178980       0.000000

                          1       3    3s                3.381949       7.218514
                                                         1.878860      -9.704678
                                                         1.043811       3.667693
                                                         0.579895       0.000000
                                                         0.322164       0.000000
                                                         0.178980       0.000000

                          1       4    4s                3.381949      -7.929171
                                                         1.878860      14.922211
                                                         1.043811     -11.057577
                                                         0.579895       3.167702
                                                         0.322164       0.000000
                                                         0.178980       0.000000

                          1       5    5s                3.381949       7.312486
                                                         1.878860     -16.560331
                                                         1.043811      17.180156
                                                         0.579895      -9.653519
                                                         0.322164       2.393165
                                                         0.178980       0.000000

                          1       6    6s                3.381949      -6.110175
                                                         1.878860      15.342782
                                                         1.043811     -19.154226
                                                         0.579895      15.070458
                                                         0.322164      -7.330131
                                                         0.178980       1.681102

                          1       7    2px               3.381949       6.537307
                                                         1.878860       0.000000
                                                         1.043811       0.000000
                                                         0.579895       0.000000
                                                         0.322164       0.000000
                                                         0.178980       0.000000
                          1       7    2py               3.381949       6.537307
                                                         1.878860       0.000000
                                                         1.043811       0.000000
                                                         0.579895       0.000000
                                                         0.322164       0.000000
                                                         0.178980       0.000000
                          1       7    2pz               3.381949       6.537307
                                                         1.878860       0.000000
                                                         1.043811       0.000000
                                                         0.579895       0.000000
                                                         0.322164       0.000000
                                                         0.178980       0.000000

                          1       8    3px               3.381949     -13.421219
                                                         1.878860       7.160293
                                                         1.043811       0.000000
                                                         0.579895       0.000000
                                                         0.322164       0.000000
                                                         0.178980       0.000000
                          1       8    3py               3.381949     -13.421219
                                                         1.878860       7.160293
                                                         1.043811       0.000000
                                                         0.579895       0.000000
                                                         0.322164       0.000000
                                                         0.178980       0.000000
                          1       8    3pz               3.381949     -13.421219
                                                         1.878860       7.160293
                                                         1.043811       0.000000
                                                         0.579895       0.000000
                                                         0.322164       0.000000
                                                         0.178980       0.000000

                          1       9    4px               3.381949      16.969875
                                                         1.878860     -17.063359
                                                         1.043811       5.199506
                                                         0.579895       0.000000
                                                         0.322164       0.000000
                                                         0.178980       0.000000
                          1       9    4py               3.381949      16.969875
                                                         1.878860     -17.063359
                                                         1.043811       5.199506
                                                         0.579895       0.000000
                                                         0.322164       0.000000
                                                         0.178980       0.000000
                          1       9    4pz               3.381949      16.969875
                                                         1.878860     -17.063359
                                                         1.043811       5.199506
                                                         0.579895       0.000000
                                                         0.322164       0.000000
                                                         0.178980       0.000000

                          1      10    5px               3.381949     -16.667809
                                                         1.878860      22.696658
                                                         1.043811     -13.047861
                                                         0.579895       3.098650
                                                         0.322164       0.000000
                                                         0.178980       0.000000
                          1      10    5py               3.381949     -16.667809
                                                         1.878860      22.696658
                                                         1.043811     -13.047861
                                                         0.579895       3.098650
                                                         0.322164       0.000000
                                                         0.178980       0.000000
                          1      10    5pz               3.381949     -16.667809
                                                         1.878860      22.696658
                                                         1.043811     -13.047861
                                                         0.579895       3.098650
                                                         0.322164       0.000000
                                                         0.178980       0.000000

                          1      11    6px               3.381949      14.245403
                                                         1.878860     -22.763562
                                                         1.043811      17.728616
                                                         0.579895      -7.950208
                                                         0.322164       1.666493
                                                         0.178980       0.000000
                          1      11    6py               3.381949      14.245403
                                                         1.878860     -22.763562
                                                         1.043811      17.728616
                                                         0.579895      -7.950208
                                                         0.322164       1.666493
                                                         0.178980       0.000000
                          1      11    6pz               3.381949      14.245403
                                                         1.878860     -22.763562
                                                         1.043811      17.728616
                                                         0.579895      -7.950208
                                                         0.322164       1.666493
                                                         0.178980       0.000000

                          1      12    7px               3.381949     -11.279874
                                                         1.878860      19.637060
                                                         1.043811     -17.948085
                                                         0.579895      10.908166
                                                         0.322164      -4.320501
                                                         0.178980       0.849040
                          1      12    7py               3.381949     -11.279874
                                                         1.878860      19.637060
                                                         1.043811     -17.948085
                                                         0.579895      10.908166
                                                         0.322164      -4.320501
                                                         0.178980       0.849040
                          1      12    7pz               3.381949     -11.279874
                                                         1.878860      19.637060
                                                         1.043811     -17.948085
                                                         0.579895      10.908166
                                                         0.322164      -4.320501
                                                         0.178980       0.849040

                          1      13    3dx2              3.381949      13.881991
                                                         1.878860       0.000000
                                                         1.043811       0.000000
                                                         0.579895       0.000000
                                                         0.322164       0.000000
                                                         0.178980       0.000000
                          1      13    3dxy              3.381949      24.044314
                                                         1.878860       0.000000
                                                         1.043811       0.000000
                                                         0.579895       0.000000
                                                         0.322164       0.000000
                                                         0.178980       0.000000
                          1      13    3dxz              3.381949      24.044314
                                                         1.878860       0.000000
                                                         1.043811       0.000000
                                                         0.579895       0.000000
                                                         0.322164       0.000000
                                                         0.178980       0.000000
                          1      13    3dy2              3.381949      13.881991
                                                         1.878860       0.000000
                                                         1.043811       0.000000
                                                         0.579895       0.000000
                                                         0.322164       0.000000
                                                         0.178980       0.000000
                          1      13    3dyz              3.381949      24.044314
                                                         1.878860       0.000000
                                                         1.043811       0.000000
                                                         0.579895       0.000000
                                                         0.322164       0.000000
                                                         0.178980       0.000000
                          1      13    3dz2              3.381949      13.881991
                                                         1.878860       0.000000
                                                         1.043811       0.000000
                                                         0.579895       0.000000
                                                         0.322164       0.000000
                                                         0.178980       0.000000

                          1      14    4dx2              3.381949     -23.558178
                                                         1.878860       9.775434
                                                         1.043811       0.000000
                                                         0.579895       0.000000
                                                         0.322164       0.000000
                                                         0.178980       0.000000
                          1      14    4dxy              3.381949     -40.803962
                                                         1.878860      16.931549
                                                         1.043811       0.000000
                                                         0.579895       0.000000
                                                         0.322164       0.000000
                                                         0.178980       0.000000
                          1      14    4dxz              3.381949     -40.803962
                                                         1.878860      16.931549
                                                         1.043811       0.000000
                                                         0.579895       0.000000
                                                         0.322164       0.000000
                                                         0.178980       0.000000
                          1      14    4dy2              3.381949     -23.558178
                                                         1.878860       9.775434
                                                         1.043811       0.000000
                                                         0.579895       0.000000
                                                         0.322164       0.000000
                                                         0.178980       0.000000
                          1      14    4dyz              3.381949     -40.803962
                                                         1.878860      16.931549
                                                         1.043811       0.000000
                                                         0.579895       0.000000
                                                         0.322164       0.000000
                                                         0.178980       0.000000
                          1      14    4dz2              3.381949     -23.558178
                                                         1.878860       9.775434
                                                         1.043811       0.000000
                                                         0.579895       0.000000
                                                         0.322164       0.000000
                                                         0.178980       0.000000

                          1      15    5dx2              3.381949      26.186024
                                                         1.878860     -19.726332
                                                         1.043811       4.838723
                                                         0.579895       0.000000
                                                         0.322164       0.000000
                                                         0.178980       0.000000
                          1      15    5dxy              3.381949      45.355523
                                                         1.878860     -34.167010
                                                         1.043811       8.380914
                                                         0.579895       0.000000
                                                         0.322164       0.000000
                                                         0.178980       0.000000
                          1      15    5dxz              3.381949      45.355523
                                                         1.878860     -34.167010
                                                         1.043811       8.380914
                                                         0.579895       0.000000
                                                         0.322164       0.000000
                                                         0.178980       0.000000
                          1      15    5dy2              3.381949      26.186024
                                                         1.878860     -19.726332
                                                         1.043811       4.838723
                                                         0.579895       0.000000
                                                         0.322164       0.000000
                                                         0.178980       0.000000
                          1      15    5dyz              3.381949      45.355523
                                                         1.878860     -34.167010
                                                         1.043811       8.380914
                                                         0.579895       0.000000
                                                         0.322164       0.000000
                                                         0.178980       0.000000
                          1      15    5dz2              3.381949      26.186024
                                                         1.878860     -19.726332
                                                         1.043811       4.838723
                                                         0.579895       0.000000
                                                         0.322164       0.000000
                                                         0.178980       0.000000

                          1      16    6dx2              3.381949     -23.532947
                                                         1.878860      23.283831
                                                         1.043811     -10.383618
                                                         0.579895       2.036764
                                                         0.322164       0.000000
                                                         0.178980       0.000000
                          1      16    6dxy              3.381949     -40.760260
                                                         1.878860      40.328778
                                                         1.043811     -17.984954
                                                         0.579895       3.527778
                                                         0.322164       0.000000
                                                         0.178980       0.000000
                          1      16    6dxz              3.381949     -40.760260
                                                         1.878860      40.328778
                                                         1.043811     -17.984954
                                                         0.579895       3.527778
                                                         0.322164       0.000000
                                                         0.178980       0.000000
                          1      16    6dy2              3.381949     -23.532947
                                                         1.878860      23.283831
                                                         1.043811     -10.383618
                                                         0.579895       2.036764
                                                         0.322164       0.000000
                                                         0.178980       0.000000
                          1      16    6dyz              3.381949     -40.760260
                                                         1.878860      40.328778
                                                         1.043811     -17.984954
                                                         0.579895       3.527778
                                                         0.322164       0.000000
                                                         0.178980       0.000000
                          1      16    6dz2              3.381949     -23.532947
                                                         1.878860      23.283831
                                                         1.043811     -10.383618
                                                         0.579895       2.036764
                                                         0.322164       0.000000
                                                         0.178980       0.000000

                          1      17    7dx2              3.381949      18.889352
                                                         1.878860     -21.444636
                                                         1.043811      12.567515
                                                         0.579895      -4.487236
                                                         0.322164       0.790810
                                                         0.178980       0.000000
                          1      17    7dxy              3.381949      32.717318
                                                         1.878860     -37.143199
                                                         1.043811      21.767574
                                                         0.579895      -7.772121
                                                         0.322164       1.369724
                                                         0.178980       0.000000
                          1      17    7dxz              3.381949      32.717318
                                                         1.878860     -37.143199
                                                         1.043811      21.767574
                                                         0.579895      -7.772121
                                                         0.322164       1.369724
                                                         0.178980       0.000000
                          1      17    7dy2              3.381949      18.889352
                                                         1.878860     -21.444636
                                                         1.043811      12.567515
                                                         0.579895      -4.487236
                                                         0.322164       0.790810
                                                         0.178980       0.000000
                          1      17    7dyz              3.381949      32.717318
                                                         1.878860     -37.143199
                                                         1.043811      21.767574
                                                         0.579895      -7.772121
                                                         0.322164       1.369724
                                                         0.178980       0.000000
                          1      17    7dz2              3.381949      18.889352
                                                         1.878860     -21.444636
                                                         1.043811      12.567515
                                                         0.579895      -4.487236
                                                         0.322164       0.790810
                                                         0.178980       0.000000

                          1      18    8dx2              3.381949     -14.281687
                                                         1.878860      17.397534
                                                         1.043811     -11.700224
                                                         0.579895       5.492725
                                                         0.322164      -1.763529
                                                         0.178980       0.294757
                          1      18    8dxy              3.381949     -24.736607
                                                         1.878860      30.133412
                                                         1.043811     -20.265382
                                                         0.579895       9.513680
                                                         0.322164      -3.054522
                                                         0.178980       0.510533
                          1      18    8dxz              3.381949     -24.736607
                                                         1.878860      30.133412
                                                         1.043811     -20.265382
                                                         0.579895       9.513680
                                                         0.322164      -3.054522
                                                         0.178980       0.510533
                          1      18    8dy2              3.381949     -14.281687
                                                         1.878860      17.397534
                                                         1.043811     -11.700224
                                                         0.579895       5.492725
                                                         0.322164      -1.763529
                                                         0.178980       0.294757
                          1      18    8dyz              3.381949     -24.736607
                                                         1.878860      30.133412
                                                         1.043811     -20.265382
                                                         0.579895       9.513680
                                                         0.322164      -3.054522
                                                         0.178980       0.510533
                          1      18    8dz2              3.381949     -14.281687
                                                         1.878860      17.397534
                                                         1.043811     -11.700224
                                                         0.579895       5.492725
                                                         0.322164      -1.763529
                                                         0.178980       0.294757

                          2       1    4fx3              0.539490       0.367212
                          2       1    4fx2y             0.539490       0.821111
                          2       1    4fx2z             0.539490       0.821111
                          2       1    4fxy2             0.539490       0.821111
                          2       1    4fxyz             0.539490       1.422207
                          2       1    4fxz2             0.539490       0.821111
                          2       1    4fy3              0.539490       0.367212
                          2       1    4fy2z             0.539490       0.821111
                          2       1    4fyz2             0.539490       0.821111
                          2       1    4fz3              0.539490       0.367212

       Atomic covalent radius [Angstrom]:                                  1.110

       Atomic van der Waals radius [Angstrom]:                             2.100

     GTH Potential information for                                    GTH-PBE-q4

       Description:                       Goedecker-Teter-Hutter pseudopotential
                                           Goedecker et al., PRB 54, 1703 (1996)
                                          Hartwigsen et al., PRB 58, 3641 (1998)
                                                      Krack, TCA 114, 145 (2005)

       Gaussian exponent of the core charge distribution:               2.582645
       Electronic configuration (s p d ...):                               2   2

       Parameters of the local part of the GTH pseudopotential:

                          rloc        C1          C2          C3          C4
                        0.440000   -6.269288

       Parameters of the non-local part of the GTH pseudopotential:

                   l      r(l)      h(i,j,l)

                   0    0.435634    8.951742   -2.706271
                                   -2.706271    3.493781
                   1    0.497942    2.431277


 MOLECULE KIND INFORMATION


 All atoms are their own molecule, skipping detailed information


 TOTAL NUMBERS AND MAXIMUM NUMBERS

  Total number of            - Atomic kinds:                                   1
                             - Atoms:                                         16
                             - Shell sets:                                    16
                             - Shells:                                        80
                             - Primitive Cartesian functions:                 64
                             - Cartesian basis functions:                    224
                             - Spherical basis functions:                    208

  Maximum angular momentum of- Orbital basis functions:                        2
                             - Local part of the GTH pseudopotential:          0
                             - Non-local part of the GTH pseudopotential:      2

  AUX_FIT ADMM-Basis: 
  Total number of            - Shell sets:                                    80
                             - Shells:                                        80
                             - Primitive Cartesian functions:                112
                             - Cartesian basis functions:                    224
                             - Spherical basis functions:                    208
                               Maximum angular momentum                        2


 MODULE QUICKSTEP: ATOMIC COORDINATES IN ANGSTROM

   Atom Kind Element         X             Y             Z       Z(eff)     Mass
      1    1 Si   14      0.000000      0.000000      0.000000   4.0000  28.0855
      2    1 Si   14      0.000000      2.715500      2.715500   4.0000  28.0855
      3    1 Si   14      2.715500      0.000000      2.715500   4.0000  28.0855
      4    1 Si   14      2.715500      2.715500      0.000000   4.0000  28.0855
      5    1 Si   14      1.357750      1.357750      1.357750   4.0000  28.0855
      6    1 Si   14      1.357750      4.073250      4.073250   4.0000  28.0855
      7    1 Si   14      4.073250      1.357750      4.073250   4.0000  28.0855
      8    1 Si   14      4.073250      4.073250      1.357750   4.0000  28.0855
      9    1 Si   14      0.000000      0.000000      5.431000   4.0000  28.0855
     10    1 Si   14      0.000000      2.715500      8.146500   4.0000  28.0855
     11    1 Si   14      2.715500      0.000000      8.146500   4.0000  28.0855
     12    1 Si   14      2.715500      2.715500      5.431000   4.0000  28.0855
     13    1 Si   14      1.357750      1.357750      6.788750   4.0000  28.0855
     14    1 Si   14      1.357750      4.073250      9.504250   4.0000  28.0855
     15    1 Si   14      4.073250      1.357750      9.504250   4.0000  28.0855
     16    1 Si   14      4.073250      4.073250      6.788750   4.0000  28.0855



 SCF PARAMETERS         Density guess:                                    ATOMIC
                        --------------------------------------------------------
                        max_scf:                                              50
                        max_scf_history:                                       0
                        max_diis:                                              4
                        --------------------------------------------------------
                        eps_scf:                                        1.00E-06
                        eps_scf_history:                                0.00E+00
                        eps_diis:                                       1.00E-01
                        eps_eigval:                                     1.00E-05
                        --------------------------------------------------------
                        level_shift [a.u.]:                             0.000000
                        --------------------------------------------------------
                        Outer loop SCF in use 
                        No variables optimised in outer loop
                        eps_scf                                         1.00E-06
                        max_scf                                               50
                        No outer loop optimization
                        step_size                                       5.00E-01

 PW_GRID| Information for grid number                                          1
 PW_GRID| Grid distributed over                                    32 processors
 PW_GRID| Real space group dimensions                                    32    1
 PW_GRID| the grid is blocked:                                                NO
 PW_GRID| Cutoff [a.u.]                                                    300.0
 PW_GRID| spherical cutoff:                                                   NO
 PW_GRID|   Bounds   1            -40      40                Points:          81
 PW_GRID|   Bounds   2            -40      40                Points:          81
 PW_GRID|   Bounds   3            -81      80                Points:         162
 PW_GRID| Volume element (a.u.^3)  0.2034E-02     Volume (a.u.^3)      2162.0514
 PW_GRID| Grid span                                                    FULLSPACE
 PW_GRID|   Distribution                         Average         Max         Min
 PW_GRID|   G-Vectors                            33215.1       33291       33210
 PW_GRID|   G-Rays                                 410.1         411         410
 PW_GRID|   Real Space Points                    33215.1       39366       26244

 PW_GRID| Information for grid number                                          2
 PW_GRID| Number of the reference grid                                         1
 PW_GRID| Grid distributed over                                    32 processors
 PW_GRID| Real space group dimensions                                    32    1
 PW_GRID| the grid is blocked:                                                NO
 PW_GRID| Cutoff [a.u.]                                                    100.0
 PW_GRID| spherical cutoff:                                                   NO
 PW_GRID|   Bounds   1            -24      23                Points:          48
 PW_GRID|   Bounds   2            -24      23                Points:          48
 PW_GRID|   Bounds   3            -48      47                Points:          96
 PW_GRID| Volume element (a.u.^3)  0.9775E-02     Volume (a.u.^3)      2162.0514
 PW_GRID| Grid span                                                    FULLSPACE
 PW_GRID|   Distribution                         Average         Max         Min
 PW_GRID|   G-Vectors                             6912.0        7200        6624
 PW_GRID|   G-Rays                                 144.0         150         138
 PW_GRID|   Real Space Points                     6912.0        9216        4608

 PW_GRID| Information for grid number                                          3
 PW_GRID| Number of the reference grid                                         1
 PW_GRID| Grid distributed over                                    32 processors
 PW_GRID| Real space group dimensions                                     4    8
 PW_GRID| the grid is blocked:                                                NO
 PW_GRID| Cutoff [a.u.]                                                     33.3
 PW_GRID| spherical cutoff:                                                   NO
 PW_GRID|   Bounds   1            -13      13                Points:          27
 PW_GRID|   Bounds   2            -13      13                Points:          27
 PW_GRID|   Bounds   3            -27      26                Points:          54
 PW_GRID| Volume element (a.u.^3)  0.5492E-01     Volume (a.u.^3)      2162.0514
 PW_GRID| Grid span                                                    FULLSPACE
 PW_GRID|   Distribution                         Average         Max         Min
 PW_GRID|   G-Vectors                             1230.2        1377        1107
 PW_GRID|   G-Rays                                  45.6          51          41
 PW_GRID|   Real Space Points                     1230.2        1512         972

 PW_GRID| Information for grid number                                          4
 PW_GRID| Number of the reference grid                                         1
 PW_GRID| Grid distributed over                                    32 processors
 PW_GRID| Real space group dimensions                                     4    8
 PW_GRID| the grid is blocked:                                                NO
 PW_GRID| Cutoff [a.u.]                                                     11.1
 PW_GRID| spherical cutoff:                                                   NO
 PW_GRID|   Bounds   1             -7       7                Points:          15
 PW_GRID|   Bounds   2             -7       7                Points:          15
 PW_GRID|   Bounds   3            -16      15                Points:          32
 PW_GRID| Volume element (a.u.^3)  0.3003         Volume (a.u.^3)      2162.0514
 PW_GRID| Grid span                                                    FULLSPACE
 PW_GRID|   Distribution                         Average         Max         Min
 PW_GRID|   G-Vectors                              225.0         270         165
 PW_GRID|   G-Rays                                  15.0          18          11
 PW_GRID|   Real Space Points                      225.0         256          96

 POISSON| Solver                                                        PERIODIC
 POISSON| Periodicity                                                        XYZ

 RS_GRID| Information for grid number                                          1
 RS_GRID|   Bounds   1            -40      40                Points:          81
 RS_GRID|   Bounds   2            -40      40                Points:          81
 RS_GRID|   Bounds   3            -81      80                Points:         162
 RS_GRID| Real space distribution over                                 32 groups
 RS_GRID| Real space distribution along direction                              3
 RS_GRID| Border size                                                         29
 RS_GRID|   Distribution                         Average         Max         Min
 RS_GRID|   Planes                                  63.1          64          63

 RS_GRID| Information for grid number                                          2
 RS_GRID|   Bounds   1            -24      23                Points:          48
 RS_GRID|   Bounds   2            -24      23                Points:          48
 RS_GRID|   Bounds   3            -48      47                Points:          96
 RS_GRID| Real space fully replicated
 RS_GRID| Group size                                                           1

 RS_GRID| Information for grid number                                          3
 RS_GRID|   Bounds   1            -13      13                Points:          27
 RS_GRID|   Bounds   2            -13      13                Points:          27
 RS_GRID|   Bounds   3            -27      26                Points:          54
 RS_GRID| Real space fully replicated
 RS_GRID| Group size                                                           1

 RS_GRID| Information for grid number                                          4
 RS_GRID|   Bounds   1             -7       7                Points:          15
 RS_GRID|   Bounds   2             -7       7                Points:          15
 RS_GRID|   Bounds   3            -16      15                Points:          32
 RS_GRID| Real space fully replicated
 RS_GRID| Group size                                                           1

 *** WARNING in hfx_types.F:2091 :: Periodic Hartree Fock calculation   ***
 *** requested with the use of a truncated or shortrange potential. The ***
 *** cutoff radius is larger than half the minimal cell dimension. This ***
 *** may lead to unphysical total energies. Reduce the cutoff radius in ***
 *** order to avoid possible problems.                                  ***


  HFX_INFO| Replica ID:                                                        1
  HFX_INFO| FRACTION:                                               0.2500000000
  HFX_INFO| Interaction Potential:                                    SHORTRANGE
  HFX_INFO| Omega:                                                  0.1100000000
  HFX_INFO| Cutoff Radius [angstrom]:                              20.0467199179
  HFX_RI_INFO| RI metric:                                             SHORTRANGE
  HFX_RI_INFO| Omega:                                               0.1100000000
  HFX_RI_INFO| Cutoff Radius [angstrom]:                           20.0467199179
  HFX_RI_INFO| RI flavor:                                                    RHO
  HFX_RI_INFO| EPS_FILTER                                                1.0E-09
  HFX_RI_INFO| EPS_FILTER 2-center                                       1.0E-12
  HFX_RI_INFO| EPS_FILTER storage                                        1.0E-11
  HFX_RI_INFO| EPS_FILTER MO                                             1.0E-12
  HFX_RI_INFO| EPS_PGF_ORB                                               1.0E-06
  HFX_RI_INFO| EPS_SCHWARZ:                                              1.0E-10
  HFX_RI_INFO| EPS_SCHWARZ_FORCES:                                       1.0E-08
  HFX_RI_INFO| Minimum block size                                              4
  HFX_RI_INFO| MO block size                                                  64
  HFX_RI_INFO| Memory reduction factor                                         3

 Number of electrons:                                                         64
 Number of occupied orbitals:                                                 32
 Number of molecular orbitals:                                                32

 Number of orbital functions:                                                208
 Number of independent orbital functions:                                    208

 Extrapolation method: initial_guess

 Atomic guess: The first density matrix is obtained in terms of atomic orbitals
               and electronic configurations assigned to each atomic kind

 Guess for atomic kind: Si

 Electronic structure
    Total number of core electrons                                         10.00
    Total number of valence electrons                                       4.00
    Total number of electrons                                              14.00
    Multiplicity                                                   not specified
    S   [  2.00  2.00] 2.00
    P   [  6.00] 2.00
 

 *******************************************************************************
                  Iteration          Convergence                     Energy [au]
 *******************************************************************************
                          1        0.526541E-01                  -3.659692963728
                          2        0.125823E-01                  -3.661785675622
                          3        0.408986E-04                  -3.661911567360
                          4        0.675570E-07                  -3.661911568709

 Energy components [Hartree]           Total Energy ::           -3.661911568709
                                        Band Energy ::           -0.941881516273
                                     Kinetic Energy ::            1.409736465412
                                   Potential Energy ::           -5.071648034121
                                      Virial (-V/T) ::            3.597585902439
                                        Core Energy ::           -5.690149137281
                                          XC Energy ::           -0.992569238249
                                     Coulomb Energy ::            3.020806806821
                       Total Pseudopotential Energy ::           -7.143143335066
                       Local Pseudopotential Energy ::           -8.006124475851
                    Nonlocal Pseudopotential Energy ::            0.862981140786
                                        Confinement ::            0.432577323720

 Orbital energies  State     L     Occupation   Energy[a.u.]          Energy[eV]

                       1     0          2.000      -0.357276           -9.721984
 
                       1     1          2.000      -0.113664           -3.092965
 

 Total Electron Density at R=0:                                         0.000026
 Re-scaling the density matrix to get the right number of electrons
                  # Electrons              Trace(P)               Scaling factor
                           64                63.195                        1.013


 SCF WAVEFUNCTION OPTIMIZATION

  ----------------------------------- OT ---------------------------------------
  Minimizer      : DIIS                : direct inversion
                                         in the iterative subspace
                                         using   7 DIIS vectors
                                         safer DIIS on
  Preconditioner : FULL_SINGLE_INVERSE : inversion of 
                                         H + eS - 2*(Sc)(c^T*H*c+const)(Sc)^T
  Precond_solver : DEFAULT
  stepsize       :    0.08000000                  energy_gap     :    0.05000000
  eps_taylor     :   0.10000E-15                  max_taylor     :             4
  ----------------------------------- OT ---------------------------------------

  Step     Update method      Time    Convergence         Total energy    Change
  ------------------------------------------------------------------------------
  MEMORY_INFO| Memory for 3-center HFX integrals (compressed):        124.92 MiB
  MEMORY_INFO| Compression factor:                                          2.68
     Occupancy of density matrix P:                           4.3E+04 / 100.000%
     Occupancy of 3c ints:                                    4.2E+07 /  98.809%
     Occupancy after contraction with K:                      4.2E+07 /  99.075%
     Occupancy after contraction with P:                      4.2E+07 / 100.000%
     Occupancy of Kohn-Sham matrix:                           4.3E+04 / 100.000%
     1 OT DIIS     0.80E-01   56.7     0.05259064       -60.0283539697 -6.00E+01
     2 OT DIIS     0.80E-01    0.4     0.04315930       -61.2862617425 -1.26E+00
     3 OT DIIS     0.80E-01    0.4     0.03953381       -62.0831585135 -7.97E-01
     4 OT DIIS     0.80E-01    0.4     0.02002351       -62.7224901658 -6.39E-01
     5 OT DIIS     0.80E-01    0.4     0.01118079       -62.9220378380 -2.00E-01
     6 OT DIIS     0.80E-01    0.4     0.00880911       -62.9877386823 -6.57E-02
     7 OT DIIS     0.80E-01    0.4     0.00647883       -63.0498481157 -6.21E-02
     8 OT DIIS     0.80E-01    0.4     0.00532256       -63.0786353945 -2.88E-02
     9 OT DIIS     0.80E-01    0.4     0.00416398       -63.1094774904 -3.08E-02
    10 OT DIIS     0.80E-01    0.4     0.00316551       -63.1359297674 -2.65E-02
    11 OT DIIS     0.80E-01    0.4     0.00255193       -63.1521256448 -1.62E-02
    12 OT DIIS     0.80E-01    0.4     0.00188595       -63.1649591023 -1.28E-02
    13 OT DIIS     0.80E-01    0.4     0.00143654       -63.1723270438 -7.37E-03
    14 OT DIIS     0.80E-01    0.4     0.00094844       -63.1774978891 -5.17E-03
    15 OT DIIS     0.80E-01    0.4     0.00078796       -63.1792039525 -1.71E-03
    16 OT DIIS     0.80E-01    0.4     0.00059866       -63.1801998111 -9.96E-04
    17 OT DIIS     0.80E-01    0.4     0.00050376       -63.1808958757 -6.96E-04
    18 OT DIIS     0.80E-01    0.4     0.00038062       -63.1813624252 -4.67E-04
    19 OT DIIS     0.80E-01    0.4     0.00030314       -63.1817065443 -3.44E-04
    20 OT DIIS     0.80E-01    0.4     0.00025089       -63.1819366898 -2.30E-04
    21 OT DIIS     0.80E-01    0.4     0.00021544       -63.1820692607 -1.33E-04
    22 OT DIIS     0.80E-01    0.4     0.00018151       -63.1821836763 -1.14E-04
    23 OT DIIS     0.80E-01    0.4     0.00014596       -63.1822752470 -9.16E-05
    24 OT DIIS     0.80E-01    0.4     0.00011543       -63.1823428905 -6.76E-05
    25 OT DIIS     0.80E-01    0.4     0.00009542       -63.1823778549 -3.50E-05
    26 OT DIIS     0.80E-01    0.4     0.00007916       -63.1823998821 -2.20E-05
    27 OT DIIS     0.80E-01    0.4     0.00006169       -63.1824186765 -1.88E-05
    28 OT DIIS     0.80E-01    0.4     0.00004804       -63.1824300633 -1.14E-05
    29 OT DIIS     0.80E-01    0.4     0.00003994       -63.1824357012 -5.64E-06
    30 OT DIIS     0.80E-01    0.4     0.00003327       -63.1824394228 -3.72E-06
    31 OT DIIS     0.80E-01    0.4     0.00002665       -63.1824423503 -2.93E-06
    32 OT DIIS     0.80E-01    0.4     0.00002150       -63.1824441932 -1.84E-06
    33 OT DIIS     0.80E-01    0.4     0.00001714       -63.1824453935 -1.20E-06
    34 OT DIIS     0.80E-01    0.4     0.00001432       -63.1824459952 -6.02E-07
    35 OT DIIS     0.80E-01    0.4     0.00001175       -63.1824464692 -4.74E-07
    36 OT DIIS     0.80E-01    0.4     0.00000961       -63.1824468191 -3.50E-07
    37 OT DIIS     0.80E-01    0.4     0.00000823       -63.1824470312 -2.12E-07
    38 OT DIIS     0.80E-01    0.4     0.00000734       -63.1824471687 -1.37E-07
    39 OT DIIS     0.80E-01    0.4     0.00000651       -63.1824472945 -1.26E-07
    40 OT DIIS     0.80E-01    0.4     0.00000581       -63.1824474069 -1.12E-07
    41 OT DIIS     0.80E-01    0.4     0.00000525       -63.1824475082 -1.01E-07
    42 OT DIIS     0.80E-01    0.4     0.00000482       -63.1824475853 -7.71E-08
    43 OT DIIS     0.80E-01    0.4     0.00000445       -63.1824476547 -6.94E-08
    44 OT DIIS     0.80E-01    0.4     0.00000404       -63.1824477350 -8.02E-08
    45 OT DIIS     0.80E-01    0.4     0.00000368       -63.1824478065 -7.16E-08
    46 OT DIIS     0.80E-01    0.4     0.00000341       -63.1824478587 -5.22E-08
    47 OT DIIS     0.80E-01    0.4     0.00000312       -63.1824479104 -5.17E-08
    48 OT DIIS     0.80E-01    0.4     0.00000279       -63.1824479659 -5.55E-08
    49 OT DIIS     0.80E-01    0.4     0.00000251       -63.1824480115 -4.57E-08
    50 OT DIIS     0.80E-01    0.4     0.00000223       -63.1824480483 -3.68E-08

  Leaving inner SCF loop after reaching    50 steps.


  Electronic density on regular grids:        -64.0000000000       -0.0000000000
  Core density on regular grids:               63.9999999999       -0.0000000001
  Total charge density on r-space grids:       -0.0000000001
  Total charge density g-space grids:          -0.0000000001

  Overlap energy of the core charge distribution:               0.00000000010608
  Self energy of the core charge distribution:               -164.12787885025639
  Core Hamiltonian energy:                                     35.20145489205073
  Hartree energy:                                              85.65169629476917
  Exchange-correlation energy:                                -16.09389112825403
  Hartree-Fock Exchange energy:                                -3.81382925668243

  Total energy:                                               -63.18244804826688

  outer SCF iter =    1 RMS gradient =   0.22E-05 energy =        -63.1824480483

  ----------------------------------- OT ---------------------------------------
  Minimizer      : DIIS                : direct inversion
                                         in the iterative subspace
                                         using   7 DIIS vectors
                                         safer DIIS on
  Preconditioner : FULL_SINGLE_INVERSE : inversion of 
                                         H + eS - 2*(Sc)(c^T*H*c+const)(Sc)^T
  Precond_solver : DEFAULT
  stepsize       :    0.08000000                  energy_gap     :    0.05000000
  eps_taylor     :   0.10000E-15                  max_taylor     :             4
  ----------------------------------- OT ---------------------------------------

  Step     Update method      Time    Convergence         Total energy    Change
  ------------------------------------------------------------------------------
     1 OT DIIS     0.80E-01    0.9     0.00000559       -63.1824480745 -2.62E-08
     2 OT DIIS     0.80E-01    0.4     0.00000485       -63.1824480899 -1.55E-08
     3 OT DIIS     0.80E-01    0.4     0.00000289       -63.1824481287 -3.87E-08
     4 OT DIIS     0.80E-01    0.4     0.00000221       -63.1824481403 -1.16E-08
     5 OT DIIS     0.80E-01    0.4     0.00000153       -63.1824481496 -9.30E-09
     6 OT DIIS     0.80E-01    0.4     0.00000083       -63.1824481560 -6.44E-09

  *** SCF run converged in     6 steps ***


  Electronic density on regular grids:        -64.0000000000       -0.0000000000
  Core density on regular grids:               63.9999999999       -0.0000000001
  Total charge density on r-space grids:       -0.0000000001
  Total charge density g-space grids:          -0.0000000001

  Overlap energy of the core charge distribution:               0.00000000010608
  Self energy of the core charge distribution:               -164.12787885025639
  Core Hamiltonian energy:                                     35.20145022937990
  Hartree energy:                                              85.65170057278984
  Exchange-correlation energy:                                -16.09389090737401
  Hartree-Fock Exchange energy:                                -3.81382920064027

  Total energy:                                               -63.18244815599486

  outer SCF iter =    2 RMS gradient =   0.83E-06 energy =        -63.1824481560
  outer SCF loop converged in   2 iterations or   56 steps


 !-----------------------------------------------------------------------------!
                     Mulliken Population Analysis

 #  Atom  Element  Kind  Atomic population                           Net charge
       1     Si       1          4.000001                             -0.000001
       2     Si       1          3.999999                              0.000001
       3     Si       1          4.000001                             -0.000001
       4     Si       1          3.999999                              0.000001
       5     Si       1          4.000000                              0.000000
       6     Si       1          3.999999                              0.000001
       7     Si       1          4.000000                             -0.000000
       8     Si       1          4.000000                             -0.000000
       9     Si       1          4.000002                             -0.000002
      10     Si       1          4.000002                             -0.000002
      11     Si       1          4.000004                             -0.000004
      12     Si       1          4.000000                             -0.000000
      13     Si       1          3.999999                              0.000001
      14     Si       1          3.999998                              0.000002
      15     Si       1          3.999999                              0.000001
      16     Si       1          3.999999                              0.000001
 # Total charge                             64.000000                 -0.000000

 !-----------------------------------------------------------------------------!

 !-----------------------------------------------------------------------------!
                           Hirshfeld Charges

  #Atom  Element  Kind  Ref Charge     Population                    Net charge
      1       Si     1       4.000          4.000                        -0.000
      2       Si     1       4.000          4.000                         0.000
      3       Si     1       4.000          4.000                        -0.000
      4       Si     1       4.000          4.000                         0.000
      5       Si     1       4.000          4.000                         0.000
      6       Si     1       4.000          4.000                         0.000
      7       Si     1       4.000          4.000                         0.000
      8       Si     1       4.000          4.000                         0.000
      9       Si     1       4.000          4.000                        -0.000
     10       Si     1       4.000          4.000                        -0.000
     11       Si     1       4.000          4.000                        -0.000
     12       Si     1       4.000          4.000                         0.000
     13       Si     1       4.000          4.000                         0.000
     14       Si     1       4.000          4.000                         0.000
     15       Si     1       4.000          4.000                         0.000
     16       Si     1       4.000          4.000                         0.000

  Total Charge                                                           -0.000
 !-----------------------------------------------------------------------------!

 ENERGY| Total FORCE_EVAL ( QS ) energy [a.u.]:              -63.182448155994862

 -------------------------------------------------------------------------------
 -                                                                             -
 -                                DBCSR STATISTICS                             -
 -                                                                             -
 -------------------------------------------------------------------------------
 COUNTER                                    TOTAL       BLAS       SMM       ACC
 flops    13 x    32 x    32               851968       0.0%    100.0%      0.0%     
 flops    32 x    32 x    32             29491200       0.0%    100.0%      0.0%     
 flops    32 x    32 x    26             95420416       0.0%    100.0%      0.0%     
 flops    52 x    32 x    32            118423552       0.0%    100.0%      0.0%     
 flops    52 x    32 x    26            160595968       0.0%    100.0%      0.0%     
 flops    13 x    13 x    32            169162240       0.0%    100.0%      0.0%     
 flops    13 x    32 x    13            337805312       0.0%    100.0%      0.0%     
 flops inhomo. stacks                           0       0.0%      0.0%      0.0%
 flops total                       911.750656E+06       0.0%    100.0%      0.0%
 flops max/rank                    285.550016E+06       0.0%    100.0%      0.0%
 matmuls inhomo. stacks                         0       0.0%      0.0%      0.0%
 matmuls total                              52114       0.0%    100.0%      0.0%
 number of processed stacks                 12802       0.0%    100.0%      0.0%
 average stack size                                     0.0       4.1       0.0
 marketing flops                     1.061863E+09
 -------------------------------------------------------------------------------
 # multiplications                           1251
 max memory usage/rank             699.191296E+06
 # max total images/rank                        2
 # max 3D layers                                1
 # MPI messages exchanged                  520416
 MPI messages size (bytes):
  total size                       793.477120E+06
  min size                           0.000000E+00
  max size                          13.312000E+03
  average size                       1.524698E+03
 MPI breakdown and total messages size (bytes):
             size <=      128              438696                        0
       128 < size <=     8192               30340                210145280
      8192 < size <=    32768               51380                583331840
     32768 < size <=   131072                   0                        0
    131072 < size <=  4194304                   0                        0
   4194304 < size <= 16777216                   0                        0
  16777216 < size                               0                        0
 -------------------------------------------------------------------------------

 *** WARNING in dbcsr_mm.F:301 :: Using a non-square number of MPI ranks ***
 *** might lead to poor performance. Used ranks: 32 Suggested: 36 64     ***

 -------------------------------------------------------------------------------
 -                                                                             -
 -                      DBCSR MESSAGE PASSING PERFORMANCE                      -
 -                                                                             -
 -------------------------------------------------------------------------------
 ROUTINE             CALLS      AVE VOLUME [Bytes]
 MP_Bcast                8                     12.
 MP_Allreduce         7007                      8.
 MP_Alltoall          9420                   5670.
 MP_ISend            38560                   1601.
 MP_IRecv            37882                   1155.
 -------------------------------------------------------------------------------

 -------------------------------------------------------------------------------
 -                                                                             -
 -                                DBM STATISTICS                               -
 -                                                                             -
 -------------------------------------------------------------------------------
    M  x    N  x    K                                          COUNT     PERCENT
  ???  x    ?  x    ?                                       96213825      25.95%
    ?  x    ?  x  ???                                       96054932      25.90%
   ??  x    ?  x    ?                                       91634069      24.71%
    ?  x    ?  x   ??                                       83474001      22.51%
    ?  x    ?  x    ?                                        1125245       0.30%
    ?  x   ??  x   ??                                         585728       0.16%
   ??  x   ??  x   ??                                         585728       0.16%
    ?  x   ??  x    ?                                         573440       0.15%
   ??  x   ??  x    ?                                         573440       0.15%
 -------------------------------------------------------------------------------

 -------------------------------------------------------------------------------
 -                                                                             -
 -                                GRID STATISTICS                              -
 -                                                                             -
 -------------------------------------------------------------------------------
 LP    KERNEL             BACKEND                              COUNT     PERCENT
 4     collocate ortho    CPU                                1164208      14.79%
 4     integrate ortho    CPU                                1144192      14.53%
 1     collocate ortho    CPU                                1132544      14.39%
 1     integrate ortho    CPU                                1132544      14.39%
 2     collocate ortho    CPU                                 871808      11.07%
 2     integrate ortho    CPU                                 871808      11.07%
 0     collocate ortho    CPU                                 502656       6.39%
 0     integrate ortho    CPU                                 502656       6.39%
 3     collocate ortho    CPU                                 274176       3.48%
 3     integrate ortho    CPU                                 274176       3.48%
 0     collocate general  CPU                                   1024       0.01%
 0     integrate general  CPU                                    512       0.01%
 -------------------------------------------------------------------------------

 MEMORY| Estimated peak process memory [MiB]                                 669

 -------------------------------------------------------------------------------
 ----                             MULTIGRID INFO                            ----
 -------------------------------------------------------------------------------
 count for grid        1:            528          cutoff [a.u.]          300.00
 count for grid        2:          39616          cutoff [a.u.]          100.00
 count for grid        3:          47008          cutoff [a.u.]           33.33
 count for grid        4:          42976          cutoff [a.u.]           11.11
 total gridlevel count  :         130128

 RI-HFX PERFORMANCE| DBT total number of flops:                         1.96E+12
 RI-HFX PERFORMANCE| DBT total execution time:                             15.34
 RI-HFX PERFORMANCE| DBT flop rate (Gflops / MPI rank):                     3.99

 -------------------------------------------------------------------------------
 -                                                                             -
 -                         MESSAGE PASSING PERFORMANCE                         -
 -                                                                             -
 -------------------------------------------------------------------------------

 ROUTINE             CALLS      AVE VOLUME [Bytes]
 MP_Group             6374
 MP_Bcast             6654                  53002.
 MP_Allreduce        48141                     39.
 MP_Sync             13388
 MP_Alltoall          5339
 MP_SendRecv         10509                  29291.
 MP_ISendRecv        10416                  29291.
 MP_Wait             25960
 MP_comm_split        3252
 MP_ISend            57468                  26446.
 MP_IRecv            58632                  25693.
 -------------------------------------------------------------------------------


 -------------------------------------------------------------------------------
 -                                                                             -
 -                           R E F E R E N C E S                               -
 -                                                                             -
 -------------------------------------------------------------------------------
 
 CP2K version 2024.3, the CP2K developers group (2024).
 CP2K is freely available from https://www.cp2k.org/ .
 
 A. Bussy, O. Schuett, J. Hutter.
 J. Chem. Phys. 158, 164109 (2023).
 Sparse tensor based nuclear gradients for periodic Hartree-Fock and low-scaling 
 correlated wave function methods in the CP2K software package: A massively 
 parallel and GPU accelerated implementation..
 https://doi.org/10.1063/5.0144493

 T. D. Kuehne, M. Iannuzzi, M. Del Ben, V. V. Rybkin, P. Seewald, F. Stein, T. 
 Laino, R. Z. Khaliullin, O. Schuett, F. Schiffmann, D. Golze, J. Wilhelm, S. 
 Chulkov, M. H. Bani-Hashemian, V. Weber, U. Borstnik, M. Taillefumier, A. S. 
 Jakobovits, A. Lazzaro, H. Pabst, T. Mueller, R. Schade, M. Guidon, S. 
 Andermatt, N. Holmberg, G. K. Schenter, A. Hehn, A. Bussy, F. Belleflamme, G. 
 Tabacchi, A. Gloess, M. Lass, I. Bethune, C. J. Mundy, C. Plessl, M. Watkins, 
 J. VandeVondele, M. Krack, J. Hutter.
 J. Chem. Phys. 152, 194103 (2020).
 CP2K: An electronic structure and molecular dynamics software package - 
 Quickstep: Efficient and accurate electronic structure calculations.
 https://doi.org/10.1063/5.0007045

 G. L. Stoychev, A. A. Auer, F. Neese.
 J. Chem. Theory Comput. 13, 554-562 (2017).
 Automatic Generation of Auxiliary Basis Sets.
 https://doi.org/10.1021/acs.jctc.6b01041

 O. Schuett, P. Messmer, J. Hutter, J. VandeVondele.
 Electronic Structure Calculations on Graphics Processing Units, 173-190 (2016).
 GPU-Accelerated Sparse Matrix-Matrix Multiplication for Linear Scaling Density 
 Functional Theory.
 https://doi.org/10.1002/9781118670712.ch8

 A. Heinecke, G. Henry, M. Hutchinson, H. Pabst.
 Proceedings of Intl. Supercomputing Conference, 981-991 (2016).
 LIBXSMM: Accelerating Small Matrix Multiplications by Runtime Code Generation.
 https://doi.org/10.1109/SC.2016.83

 J. Hutter, M. Iannuzzi, F. Schiffmann, J. VandeVondele.
 WIREs Comput Mol Sci. 4, 15-25 (2014).
 CP2K: atomistic simulations of condensed matter systems.
 https://doi.org/10.1002/wcms.1159

 U. Borstnik, J. VandeVondele, V. Weber, J. Hutter.
 Parallel Comput. 40, 47-58 (2014).
 Sparse matrix multiplication: The distributed block-compressed sparse row 
 library.
 https://doi.org/10.1016/j.parco.2014.03.012

 P. Merlot, R. Izsak, A. Borgo, T. Kjaergaard, T. Helgaker, S. Reine.
 J. Chem. Phys. 141, 094104 (2014).
 Charge-constrained auxiliary-density-matrix methods for the Hartree-Fock 
 exchange contribution.
 https://doi.org/10.1063/1.4894267

 A. Marek, V. Blum, R. Johanni, V. Havu, B. Lang, T. Auckenthaler, A. Heinecke, 
 H. Bungartz, H. Lederer.
 J. Phys. Condens. Matter 26, 213201 (2014).
 The ELPA library: scalable parallel eigenvalue solutions for electronic 
 structure theory and computational science.
 https://doi.org/10.1088/0953-8984/26/21/213201

 M. Guidon, J. Hutter, J. VandeVondele.
 J. Chem. Theory Comput. 6, 2348-2364 (2010).
 Auxiliary Density Matrix Methods for Hartree-Fock Exchange Calculations.
 https://doi.org/10.1021/ct1002225

 M. Guidon, J. Hutter, J. VandeVondele.
 J. Chem. Theory Comput. 5, 3010-3021 (2009).
 Robust Periodic Hartree-Fock Exchange for Large-Scale Simulations Using 
 Gaussian Basis Sets.
 https://doi.org/10.1021/ct900494g

 M. Guidon, F. Schiffmann, J. Hutter, J. VandeVondele.
 J. Chem. Phys. 128, 214104 (2008).
 Ab initio molecular dynamics using hybrid density functionals.
 https://doi.org/10.1063/1.2931945

 J. VandeVondele, J. Hutter.
 J. Chem. Phys. 127, 114105 (2007).
 Gaussian basis sets for accurate calculations on molecular systems in gas and 
 condensed phases.
 https://doi.org/10.1063/1.2770708

 J. VandeVondele, M. Krack, F. Mohamed, M. Parrinello, T. Chassaing, J. Hutter.
 Comput. Phys. Commun. 167, 103-128 (2005).
 QUICKSTEP: Fast and accurate density functional calculations using a mixed 
 Gaussian and plane waves approach.
 https://doi.org/10.1016/j.cpc.2004.12.014

 M. Krack.
 Theor. Chem. Acc. 114, 145-152 (2005).
 Pseudopotentials for H to Kr optimized for gradient-corrected 
 exchange-correlation functionals.
 https://doi.org/10.1007/s00214-005-0655-y

 M. Frigo, S. G. Johnson.
 Proc. IEEE 93, 216-231 (2005).
 The design and implementation of FFTW3.
 https://doi.org/10.1109/JPROC.2004.840301

 J. Heyd, G. E. Scuseria.
 J. Chem. Phys. 120, 7274-7280 (2004).
 Assessment and validation of a screened Coulomb hybrid density functional.
 https://doi.org/10.1063/1.1668634

 J. VandeVondele, J. Hutter.
 J. Chem. Phys. 118, 4365-4369 (2003).
 An efficient orbital transformation method for electronic structure 
 calculations.
 https://doi.org/10.1063/1.1543154

 C. Hartwigsen, S. Goedecker, J. Hutter.
 Phys. Rev. B 58, 3641-3662 (1998).
 Relativistic separable dual-space Gaussian pseudopotentials from H to Rn.
 https://doi.org/10.1103/PhysRevB.58.3641

 G. Lippert, J. Hutter, M. Parrinello.
 Mol. Phys. 92, 477-487 (1997).
 A hybrid Gaussian and plane wave density functional scheme.
 https://doi.org/10.1080/002689797170220

 S. Goedecker, M. Teter, J. Hutter.
 Phys. Rev. B 54, 1703-1710 (1996).
 Separable dual-space Gaussian pseudopotentials.
 https://doi.org/10.1103/PhysRevB.54.1703

 J. P. Perdew, K. Burke, M. Ernzerhof.
 Phys. Rev. Lett. 77, 3865-3868 (1996).
 Generalized gradient approximation made simple.
 https://doi.org/10.1103/PhysRevLett.77.3865


 -------------------------------------------------------------------------------
 -                                                                             -
 -                                T I M I N G                                  -
 -                                                                             -
 -------------------------------------------------------------------------------
 SUBROUTINE                       CALLS  ASD         SELF TIME        TOTAL TIME
                                MAXIMUM       AVERAGE  MAXIMUM  AVERAGE  MAXIMUM
 CP2K                                 1  1.0    0.027    0.030   81.076   81.079
 qs_energies                          1  2.0    0.024    0.024   80.892   80.892
 scf_env_do_scf                       1  3.0    0.000    0.000   80.706   80.706
 qs_ks_update_qs_env                 58  5.0    0.000    0.000   78.902   78.902
 rebuild_ks_matrix                   56  6.0    0.000    0.000   78.900   78.901
 qs_ks_build_kohn_sham_matrix        56  7.0    0.008    0.008   78.900   78.901
 hfx_ks_matrix                       56  8.0    0.002    0.002   71.516   71.516
 hfx_ri_update_ks                    56  9.0    0.001    0.001   71.512   71.512
 hfx_ri_update_ks_Pmat               56 10.0    1.114    1.249   71.509   71.509
 init_scf_loop                        2  4.0    0.000    0.000   57.097   57.097
 hfx_ri_pre_scf_Pmat                  1 11.0    0.000    0.001   56.096   56.096
 hfx_ri_pre_scf_Pmat_int              1 12.0    0.000    0.000   55.763   55.764
 hfx_ri_pre_scf_calc_tensors          1 13.0    0.002    0.003   55.708   55.729
 build_3c_integrals                   3 14.0   24.590   40.601   33.719   55.554
 mp_sync                          13388 13.4   23.354   41.221   23.354   41.221
 scf_env_do_scf_inner_loop           56  4.0    0.002    0.011   23.609   23.609
 dbt_total                         3896 11.5    0.023    0.024   13.897   13.899
 dbt_contract                      1017 13.0    0.072    0.073   10.627   10.629
 abc_contract_xsmm              5135597 15.0    5.953    9.799    5.953    9.799
 dbt_tas_total                     1695 14.1    0.145    0.151    7.904    7.904
 dbt_tas_multiply                  1020 14.0    0.002    0.003    7.492    7.492
 hfx_ri_update_ks_Pmat_KS           504 11.0    0.003    0.003    5.616    5.616
 dbt_tas_dbm                       1020 16.0    0.002    0.003    5.576    5.578
 dbm_multiply                      1020 18.0    4.882    5.389    4.882    5.389
 hfx_ri_update_ks_Pmat_Px3C         504 11.0    0.001    0.001    5.244    5.244
 build_3c_integrals_put_dbcsr    357995 15.0    2.305    3.770    2.305    3.770
 dbt_tas_mm_2                       505 17.0    0.002    0.002    3.232    3.232
 dbt_tas_reserve_blocks_index      6010 15.8    2.009    2.425    2.615    3.071
 qs_vxc_create                      112  8.0    0.002    0.002    2.771    2.771
 xc_vxc_pw_create                   112  9.0    0.034    0.038    2.769    2.769
 sum_up_and_integrate                56  8.0    0.001    0.001    2.737    2.737
 dbt_reserve_blocks_index          4276 14.9    0.049    0.060    2.273    2.734
 integrate_v_rspace                 112  9.0    0.002    0.002    2.724    2.725
 calculate_rho_elec                 113  7.5    0.009    0.010    2.695    2.695
 dbt_copy                          1760 12.3    0.015    0.016    2.515    2.687
 dbt_crop                          2034 14.0    1.453    1.534    2.461    2.606
 xc_rho_set_and_dset_create         112 10.0    0.022    0.024    1.874    2.240
 dbt_tas_mm_3T                      505 17.0    0.001    0.001    2.113    2.132
 fft_wrap_pw1pw2                   1854 10.8    0.006    0.006    1.706    2.010
 dbt_reshape                        712 13.8    1.165    1.205    1.889    1.992
 grid_collocate_task_list           113  8.5    1.886    1.932    1.886    1.932
 fft_wrap_pw1pw2_300               1179 12.1    0.053    0.055    1.580    1.884
 grid_integrate_task_list           112 10.0    1.812    1.858    1.812    1.858
 dbt_reserve_blocks_index_array    4159 13.9    0.007    0.007    1.619    1.770
 xc_functional_eval                 168 11.0    0.001    0.001    1.414    1.767
 fft3d_ps                          1854 12.8    0.579    0.682    1.430    1.748
 hfx_ri_update_ks_Pmat_copy_2       504 11.0    0.001    0.001    1.708    1.710
 -------------------------------------------------------------------------------

 The number of warnings for this run is : 2
 
 -------------------------------------------------------------------------------
  **** **** ******  **  PROGRAM ENDED AT                 2026-06-28 02:04:27.410
 ***** ** ***  *** **   PROGRAM RAN ON                                      cu03
 **    ****   ******    PROGRAM RAN BY                                     rudin
 ***** **    ** ** **   PROGRAM PROCESS ID                                190918
  **** **  *******  **  PROGRAM STOPPED IN /home/rudin/code/kylin-pbc/art/exampl
                                           e/scaling/Si16-HSE06
