    2    2    1    1
  0.4762808E+02  0.4567000E-09  0.4567000E-09  0.4567000E-09  0.5000000E-15
  1.000000000000000E-004
  CAR 
 CsI-HSE06-gamma-vasp  (HSE06)           
     16      1     16
 
  0.0000000E+00  0.0000000E+00  0.0000000E+00  0.1000000E+01
    1      -21.590336   1.000000
    2      -10.475885   1.000000
    3       -7.486105   1.000000
    4       -7.486105   1.000000
    5       -7.486105   1.000000
    6        0.493925   1.000000
    7        0.493925   1.000000
    8        0.493925   1.000000
    9        5.612778   0.000000
   10        5.744088   0.000000
   11        5.744088   0.000000
   12        9.329977   0.000000
   13        9.329977   0.000000
   14        9.329977   0.000000
   15       12.128369   0.000000
   16       12.128369   0.000000
