       N       E                     dE             d eps       ncg     rms          ort
SDA:   1    -0.325540574181E+01   -0.32554E+01   -0.46278E-01    16   0.116E+00 0.000E+00
DMP:   2    -0.329257805152E+01   -0.37172E-01   -0.30016E-01    16   0.483E-01 0.699E-01
DMP:   3    -0.331466169608E+01   -0.22084E-01   -0.11118E-01    16   0.140E-01 0.362E-01
DMP:   4    -0.332181703279E+01   -0.71553E-02   -0.19688E-02    16   0.200E-02 0.764E-02
DMP:   5    -0.332271675918E+01   -0.89973E-03   -0.17695E-03    16   0.668E-03-0.590E-03
DMP:   6    -0.332273628410E+01   -0.19525E-04   -0.18695E-03    16   0.619E-03-0.396E-03
DMP:   7    -0.332286833771E+01   -0.13205E-03   -0.16425E-03    16   0.334E-03 0.200E-03
DMP:   8    -0.332298882187E+01   -0.12048E-03   -0.84798E-04    16   0.130E-03 0.215E-03
DMP:   9    -0.332304809794E+01   -0.59276E-04   -0.31639E-04    16   0.391E-04 0.105E-03
DMP:  10    -0.332306780643E+01   -0.19708E-04   -0.85948E-05    16   0.907E-05 0.325E-04
DMP:  11    -0.332307211563E+01   -0.43092E-05   -0.20814E-05    16   0.257E-05 0.691E-05
DMP:  12    -0.332307274181E+01   -0.62618E-06   -0.50778E-06    16   0.851E-06 0.109E-05
   1 F= -.33230727E+01 E0= -.33230727E+01  d E =-.636505E-11
