<?xml version="1.0" encoding="ISO-8859-1"?>
<modeling>
 <generator>
  <i name="program" type="string">vasp </i>
  <i name="version" type="string">5.4.4.18Apr17-6-g9f103f2a35  </i>
  <i name="subversion" type="string">(build Mar 10 2026 18:18:58) gamma-only         parallel </i>
  <i name="platform" type="string">LinuxIFC </i>
  <i name="date" type="string">2026 06 25 </i>
  <i name="time" type="string">16:00:22 </i>
 </generator>
 <incar>
  <i type="string" name="SYSTEM"> CsI-HSE06-gamma-vasp  (HSE06)</i>
  <i type="int" name="ISTART">     1</i>
  <i type="string" name="PREC">accurate</i>
  <i type="string" name="ALGO"> Damped</i>
  <i type="int" name="ICHARG">     0</i>
  <i type="int" name="NELM">   120</i>
  <i name="EDIFF">      0.00000100</i>
  <i name="ENCUT">    290.00000000</i>
  <i type="logical" name="LREAL"> F  </i>
  <i name="TIME">      0.40000000</i>
  <i type="int" name="ISMEAR">     0</i>
  <i name="SIGMA">      0.05000000</i>
  <i type="logical" name="LWAVE"> F  </i>
  <i type="logical" name="LCHARG"> F  </i>
  <v type="int" name="KPOINT_BSE">    -1     0     0     0</v>
  <i type="int" name="NELM">   120</i>
  <i type="logical" name="LHFCALC"> T  </i>
  <i name="HFSCREEN">      0.20000000</i>
  <i name="AEXX">      0.25000000</i>
  <i type="string" name="PRECFOCK">fast</i>
 </incar>
 <structure name="primitive_cell" >
  <crystal>
   <varray name="basis" >
    <v>       4.56700000       0.00000000       0.00000000 </v>
    <v>       0.00000000       4.56700000       0.00000000 </v>
    <v>       0.00000000       0.00000000       4.56700000 </v>
   </varray>
   <i name="volume">     95.25615226 </i>
   <varray name="rec_basis" >
    <v>       0.21896212       0.00000000       0.00000000 </v>
    <v>       0.00000000       0.21896212       0.00000000 </v>
    <v>       0.00000000       0.00000000       0.21896212 </v>
   </varray>
  </crystal>
  <varray name="positions" >
   <v>       0.00000000       0.00000000       0.00000000 </v>
   <v>      -0.50000000      -0.50000000      -0.50000000 </v>
  </varray>
 </structure>
 <varray name="primitive_index" >
  <v type="int" >        1 </v>
  <v type="int" >        2 </v>
 </varray>
 <kpoints>
  <generation param="Gamma">
   <v type="int" name="divisions">       1        1        1 </v>
   <v name="usershift">      0.00000000       0.00000000       0.00000000 </v>
   <v name="genvec1">      1.00000000       0.00000000       0.00000000 </v>
   <v name="genvec2">      0.00000000       1.00000000       0.00000000 </v>
   <v name="genvec3">      0.00000000       0.00000000       1.00000000 </v>
   <v name="shift">      0.00000000       0.00000000       0.00000000 </v>
  </generation>
  <varray name="kpointlist" >
   <v>       0.00000000       0.00000000       0.00000000 </v>
  </varray>
  <varray name="weights" >
   <v>       1.00000000 </v>
  </varray>
 </kpoints>
 <parameters>
  <separator name="general" >
   <i type="string" name="SYSTEM">CsI-HSE06-gamma-vasp  (HSE06)</i>
   <i type="logical" name="LCOMPAT"> F  </i>
  </separator>
  <separator name="electronic" >
   <i type="string" name="PREC">accura</i>
   <i name="ENMAX">    290.00000000</i>
   <i name="ENAUG">    407.93300000</i>
   <i name="EDIFF">      0.00000100</i>
   <i type="int" name="IALGO">    53</i>
   <i type="int" name="IWAVPR">    10</i>
   <i type="int" name="NBANDS">    16</i>
   <i name="NELECT">     16.00000000</i>
   <i type="int" name="TURBO">     0</i>
   <i type="int" name="IRESTART">     0</i>
   <i type="int" name="NREBOOT">     0</i>
   <i type="int" name="NMIN">     0</i>
   <i name="EREF">      0.00000000</i>
   <separator name="electronic smearing" >
    <i type="int" name="ISMEAR">     0</i>
    <i name="SIGMA">      0.05000000</i>
    <i name="KSPACING">      0.50000000</i>
    <i type="logical" name="KGAMMA"> T  </i>
   </separator>
   <separator name="electronic projectors" >
    <i type="logical" name="LREAL"> F  </i>
    <v name="ROPT">      0.00000000      0.00000000</v>
    <i type="int" name="LMAXPAW">  -100</i>
    <i type="int" name="LMAXMIX">     2</i>
    <i type="logical" name="NLSPLINE"> F  </i>
   </separator>
   <separator name="electronic startup" >
    <i type="int" name="ISTART">     1</i>
    <i type="int" name="ICHARG">     0</i>
    <i type="int" name="INIWAV">     1</i>
   </separator>
   <separator name="electronic spin" >
    <i type="int" name="ISPIN">     1</i>
    <i type="logical" name="LNONCOLLINEAR"> F  </i>
    <v name="MAGMOM">      1.00000000      1.00000000</v>
    <i name="NUPDOWN">     -1.00000000</i>
    <i type="logical" name="LSORBIT"> F  </i>
    <v name="SAXIS">      0.00000000      0.00000000      1.00000000</v>
    <i type="logical" name="LSPIRAL"> F  </i>
    <v name="QSPIRAL">      0.00000000      0.00000000      0.00000000</v>
    <i type="logical" name="LZEROZ"> F  </i>
   </separator>
   <separator name="electronic exchange-correlation" >
    <i type="logical" name="LASPH"> F  </i>
    <i type="logical" name="LMETAGGA"> F  </i>
   </separator>
   <separator name="electronic convergence" >
    <i type="int" name="NELM">   120</i>
    <i type="int" name="NELMDL">     0</i>
    <i type="int" name="NELMIN">     2</i>
    <i name="ENINI">    290.00000000</i>
    <separator name="electronic convergence detail" >
     <i type="logical" name="LDIAG"> T  </i>
     <i type="logical" name="LSUBROT"> F  </i>
     <i name="WEIMIN">      0.00000000</i>
     <i name="EBREAK">      0.00000002</i>
     <i name="DEPER">      0.30000000</i>
     <i type="int" name="NRMM">     4</i>
     <i name="TIME">      0.40000000</i>
    </separator>
   </separator>
   <separator name="electronic mixer" >
    <i name="AMIX">      0.40000000</i>
    <i name="BMIX">      1.00000000</i>
    <i name="AMIN">      0.10000000</i>
    <i name="AMIX_MAG">      1.60000000</i>
    <i name="BMIX_MAG">      1.00000000</i>
    <separator name="electronic mixer details" >
     <i type="int" name="IMIX">     4</i>
     <i type="logical" name="MIXFIRST"> F  </i>
     <i type="int" name="MAXMIX">   -45</i>
     <i name="WC">    100.00000000</i>
     <i type="int" name="INIMIX">     1</i>
     <i type="int" name="MIXPRE">     1</i>
     <i type="int" name="MREMOVE">     5</i>
    </separator>
   </separator>
   <separator name="electronic dipolcorrection" >
    <i type="logical" name="LDIPOL"> F  </i>
    <i type="logical" name="LMONO"> F  </i>
    <i type="int" name="IDIPOL">     0</i>
    <i name="EPSILON">      1.00000000</i>
    <v name="DIPOL">   -100.00000000   -100.00000000   -100.00000000</v>
    <i name="EFIELD">      0.00000000</i>
   </separator>
  </separator>
  <separator name="grids" >
   <i type="int" name="NGX">    28</i>
   <i type="int" name="NGY">    28</i>
   <i type="int" name="NGZ">    28</i>
   <i type="int" name="NGXF">    56</i>
   <i type="int" name="NGYF">    56</i>
   <i type="int" name="NGZF">    56</i>
   <i type="logical" name="ADDGRID"> F  </i>
  </separator>
  <separator name="ionic" >
   <i type="int" name="NSW">     0</i>
   <i type="int" name="IBRION">    -1</i>
   <i type="int" name="MDALGO">     0</i>
   <i type="int" name="ISIF">     0</i>
   <i name="PSTRESS">      0.00000000</i>
   <i name="EDIFFG">      0.00001000</i>
   <i type="int" name="NFREE">     0</i>
   <i name="POTIM">      0.50000000</i>
   <i name="SMASS">     -3.00000000</i>
   <i name="SCALEE">      1.00000000</i>
  </separator>
  <separator name="ionic md" >
   <i name="TEBEG">      0.00010000</i>
   <i name="TEEND">      0.00010000</i>
   <i type="int" name="NBLOCK">     1</i>
   <i type="int" name="KBLOCK">     1</i>
   <i type="int" name="NPACO">   256</i>
   <i name="APACO">     16.00000000</i>
  </separator>
  <separator name="symmetry" >
   <i type="int" name="ISYM">     3</i>
   <i name="SYMPREC">      0.00001000</i>
  </separator>
  <separator name="dos" >
   <i type="int" name="LORBIT">     0</i>
   <v name="RWIGS">     -1.00000000     -1.00000000</v>
   <i type="int" name="NEDOS">   301</i>
   <i name="EMIN">     10.00000000</i>
   <i name="EMAX">    -10.00000000</i>
   <i name="EFERMI">      0.00000000</i>
  </separator>
  <separator name="writing" >
   <i type="int" name="NWRITE">     2</i>
   <i type="logical" name="LWAVE"> F  </i>
   <i type="logical" name="LDOWNSAMPLE"> F  </i>
   <i type="logical" name="LCHARG"> F  </i>
   <i type="logical" name="LPARD"> F  </i>
   <i type="logical" name="LVTOT"> F  </i>
   <i type="logical" name="LVHAR"> F  </i>
   <i type="logical" name="LELF"> F  </i>
   <i type="logical" name="LOPTICS"> F  </i>
   <v name="STM">      0.00000000      0.00000000      0.00000000      0.00000000      0.00000000      0.00000000      0.00000000</v>
  </separator>
  <separator name="performance" >
   <i type="int" name="NPAR">     8</i>
   <i type="int" name="NSIM">     4</i>
   <i type="int" name="NBLK">    -1</i>
   <i type="logical" name="LPLANE"> T  </i>
   <i type="logical" name="LSCALAPACK"> T  </i>
   <i type="logical" name="LSCAAWARE"> F  </i>
   <i type="logical" name="LSCALU"> F  </i>
   <i type="logical" name="LASYNC"> F  </i>
   <i type="logical" name="LORBITALREAL"> F  </i>
  </separator>
  <separator name="miscellaneous" >
   <i type="int" name="IDIOT">     3</i>
   <i type="int" name="ISPECIAL">     0</i>
   <i type="logical" name="LMUSIC"> F  </i>
   <v name="POMASS">    132.90000000    126.90400000</v>
   <v name="DARWINR">      0.00000000      0.00000000</v>
   <v name="DARWINV">      1.00000000      1.00000000</v>
   <i type="logical" name="LCORR"> T  </i>
  </separator>
  <i type="logical" name="GGA_COMPAT"> T  </i>
  <i type="logical" name="LBERRY"> F  </i>
  <i type="int" name="ICORELEVEL">     0</i>
  <i type="logical" name="LDAU"> F  </i>
  <i type="int" name="I_CONSTRAINED_M">     0</i>
  <separator name="electronic exchange-correlation" >
   <i type="string" name="GGA">--</i>
   <i type="int" name="VOSKOWN">     0</i>
   <i type="logical" name="LHFCALC"> T  </i>
   <i type="string" name="PRECFOCK">fast</i>
   <i type="logical" name="LSYMGRAD"> F  </i>
   <i type="logical" name="LHFONE"> F  </i>
   <i type="logical" name="LRHFCALC"> F  </i>
   <i type="logical" name="LTHOMAS"> F  </i>
   <i type="logical" name="LMODELHF"> F  </i>
   <i name="ENCUT4O">     -1.00000000</i>
   <i type="int" name="EXXOEP">     0</i>
   <i type="int" name="FOURORBIT">     0</i>
   <i name="AEXX">      0.25000000</i>
   <i name="HFALPHA">     -1.00000000</i>
   <i name="MCALPHA">      0.00000000</i>
   <i name="ALDAX">      0.75000000</i>
   <i name="AGGAX">      0.75000000</i>
   <i name="ALDAC">      1.00000000</i>
   <i name="AGGAC">      1.00000000</i>
   <i type="int" name="NKREDX">     1</i>
   <i type="int" name="NKREDY">     1</i>
   <i type="int" name="NKREDZ">     1</i>
   <i type="logical" name="SHIFTRED"> F  </i>
   <i type="logical" name="ODDONLY"> F  </i>
   <i type="logical" name="EVENONLY"> F  </i>
   <i type="int" name="LMAXFOCK">     4</i>
   <i type="int" name="NMAXFOCKAE">     1</i>
   <i type="logical" name="LFOCKAEDFT"> F  </i>
   <i name="HFSCREEN">      0.20000000</i>
   <i name="HFSCREENC">      0.20000000</i>
   <i type="int" name="NBANDSGWLOW">     1</i>
  </separator>
  <separator name="vdW DFT" >
   <i type="logical" name="LUSE_VDW"> F  </i>
   <i name="Zab_VDW">     -0.84910000</i>
   <i name="PARAM1">      0.12340000</i>
   <i name="PARAM2">      1.00000000</i>
   <i name="PARAM3">      0.00000000</i>
  </separator>
  <separator name="model GW" >
   <i type="int" name="MODEL_GW">     0</i>
   <i name="MODEL_EPS0">     28.57684568</i>
   <i name="MODEL_ALPHA">      1.00000000</i>
  </separator>
  <separator name="linear response parameters" >
   <i type="logical" name="LEPSILON"> F  </i>
   <i type="logical" name="LRPA"> F  </i>
   <i type="logical" name="LNABLA"> F  </i>
   <i type="logical" name="LVEL"> F  </i>
   <i type="int" name="KINTER">     0</i>
   <i name="CSHIFT">      0.10000000</i>
   <i name="OMEGAMAX">     -1.00000000</i>
   <i name="DEG_THRESHOLD">      0.00200000</i>
   <i name="RTIME">     -0.10000000</i>
   <i name="WPLASMAI">      0.00000000</i>
   <v name="DFIELD">      0.00000000      0.00000000      0.00000000</v>
   <v name="WPLASMA">      0.00000000      0.00000000      0.00000000      0.00000000      0.00000000      0.00000000      0.00000000      0.00000000      0.00000000</v>
  </separator>
  <separator name="orbital magnetization" >
   <i type="logical" name="NUCIND"> F  </i>
   <v name="MAGPOS">      0.00000000      0.00000000      0.00000000</v>
   <i type="logical" name="LNICSALL"> T  </i>
   <i type="logical" name="ORBITALMAG"> F  </i>
   <i type="logical" name="LMAGBLOCH"> F  </i>
   <i type="logical" name="LCHIMAG"> F  </i>
   <i type="logical" name="LGAUGE"> T  </i>
   <i type="int" name="MAGATOM">     0</i>
   <v name="MAGDIPOL">      0.00000000      0.00000000      0.00000000</v>
   <v name="AVECCONST">      0.00000000      0.00000000      0.00000000</v>
  </separator>
  <separator name="response functions" >
   <i type="logical" name="LADDER"> F  </i>
   <i type="logical" name="LRPAFORCE"> F  </i>
   <i type="logical" name="LFXC"> F  </i>
   <i type="logical" name="LHARTREE"> T  </i>
   <i type="int" name="IBSE">     0</i>
   <v type="int" name="KPOINT">    -1     0     0     0</v>
   <i type="logical" name="LTCTE"> F  </i>
   <i type="logical" name="LTETE"> F  </i>
   <i type="logical" name="LTRIPLET"> F  </i>
   <i type="logical" name="LFXCEPS"> F  </i>
   <i type="logical" name="LFXHEG"> F  </i>
   <i type="int" name="NATURALO">     2</i>
   <i type="logical" name="L2ORDER"> F  </i>
   <i type="logical" name="LMP2LT"> F  </i>
   <i type="logical" name="LUSEW"> F  </i>
   <i name="ENCUTGW">     -2.00000000</i>
   <i name="ENCUTGWSOFT">     -2.00000000</i>
   <i name="ENCUTLF">     -1.00000000</i>
   <i type="int" name="LMAXMP2">    -1</i>
   <i name="SCISSOR">      0.00000000</i>
   <i type="int" name="NOMEGA">     0</i>
   <i type="int" name="NOMEGAR">     0</i>
   <i type="int" name="NBANDSGW">    -1</i>
   <i type="int" name="NBANDSO">    -1</i>
   <i type="int" name="NBANDSV">    -1</i>
   <i type="int" name="NELM">   120</i>
   <i type="int" name="NELMHF">     1</i>
   <i type="int" name="DIM">     3</i>
   <i type="int" name="ANTIRES">     0</i>
   <i name="OMEGAMAX">    -30.00000000</i>
   <i name="OMEGAMIN">    -30.00000000</i>
   <i name="OMEGATL">   -200.00000000</i>
   <i type="int" name="OMEGAGRID">   140</i>
   <i name="CSHIFT">     -0.10000000</i>
   <i type="logical" name="SELFENERGY"> F  </i>
   <i type="logical" name="LSPECTRAL"> F  </i>
   <i type="logical" name="LSPECTRALGW"> F  </i>
   <i type="logical" name="LSINGLES"> F  </i>
   <i type="logical" name="LFERMIGW"> F  </i>
   <i type="logical" name="ODDONLYGW"> F  </i>
   <i type="logical" name="EVENONLYGW"> F  </i>
   <i type="int" name="NKREDLFX">     1</i>
   <i type="int" name="NKREDLFY">     1</i>
   <i type="int" name="NKREDLFZ">     1</i>
   <i type="int" name="MAXMEM">  2800</i>
   <i type="int" name="TELESCOPE">     0</i>
   <i type="int" name="TAUPAR">     1</i>
   <i type="int" name="OMEGAPAR">    -1</i>
   <i name="LAMBDA">      1.00000000</i>
  </separator>
  <separator name="External order field" >
   <i name="OFIELD_KAPPA">      0.00000000</i>
   <v name="OFIELD_K">      0.00000000      0.00000000      0.00000000</v>
   <i name="OFIELD_Q6_NEAR">      0.00000000</i>
   <i name="OFIELD_Q6_FAR">      0.00000000</i>
   <i name="OFIELD_A">      0.00000000</i>
  </separator>
 </parameters>
 <atominfo>
  <atoms>       2 </atoms>
  <types>       2 </types>
  <array name="atoms" >
   <dimension dim="1">ion</dimension>
   <field type="string">element</field>
   <field type="int">atomtype</field>
   <set>
    <rc><c>Cs</c><c>   1</c></rc>
    <rc><c>I </c><c>   2</c></rc>
   </set>
  </array>
  <array name="atomtypes" >
   <dimension dim="1">type</dimension>
   <field type="int">atomspertype</field>
   <field type="string">element</field>
   <field>mass</field>
   <field>valence</field>
   <field type="string">pseudopotential</field>
   <set>
    <rc><c>   1</c><c>Cs</c><c>    132.90000000</c><c>      9.00000000</c><c>  PAW_PBE Cs_sv 08Apr2002               </c></rc>
    <rc><c>   1</c><c>I </c><c>    126.90400000</c><c>      7.00000000</c><c>  PAW_PBE I 08Apr2002                   </c></rc>
   </set>
  </array>
 </atominfo>
 <structure name="initialpos" >
  <crystal>
   <varray name="basis" >
    <v>       4.56700000       0.00000000       0.00000000 </v>
    <v>       0.00000000       4.56700000       0.00000000 </v>
    <v>       0.00000000       0.00000000       4.56700000 </v>
   </varray>
   <i name="volume">     95.25615226 </i>
   <varray name="rec_basis" >
    <v>       0.21896212       0.00000000       0.00000000 </v>
    <v>       0.00000000       0.21896212       0.00000000 </v>
    <v>       0.00000000       0.00000000       0.21896212 </v>
   </varray>
  </crystal>
  <varray name="positions" >
   <v>       0.00000000       0.00000000       0.00000000 </v>
   <v>       0.50000000       0.50000000       0.50000000 </v>
  </varray>
 </structure>
 <calculation>
  <scstep>
   <time name="total">    3.92    4.26</time>
   <energy>
    <i name="alphaZ">     36.74310680 </i>
    <i name="ewald">   -740.78755578 </i>
    <i name="hartreedc">   -116.17567152 </i>
    <i name="XCdc">     -2.54501106 </i>
    <i name="pawpsdc">    847.90422027 </i>
    <i name="pawaedc">   -821.84848489 </i>
    <i name="eentropy">     -0.00000000 </i>
    <i name="bandstr">   -105.57384934 </i>
    <i name="atom">    869.57236141 </i>
    <i name="e_fr_energy">     -3.25540574 </i>
    <i name="e_wo_entrp">     -3.25540574 </i>
    <i name="e_0_energy">     -3.25540574 </i>
   </energy>
  </scstep>
  <scstep>
   <time name="total">    1.87    1.88</time>
   <energy>
    <i name="e_fr_energy">     -3.29257805 </i>
    <i name="e_wo_entrp">     -3.29257805 </i>
    <i name="e_0_energy">     -3.29257805 </i>
   </energy>
  </scstep>
  <scstep>
   <time name="total">    2.05    2.05</time>
   <energy>
    <i name="e_fr_energy">     -3.31466170 </i>
    <i name="e_wo_entrp">     -3.31466170 </i>
    <i name="e_0_energy">     -3.31466170 </i>
   </energy>
  </scstep>
  <scstep>
   <time name="total">    4.16    4.47</time>
   <energy>
    <i name="e_fr_energy">     -3.32181703 </i>
    <i name="e_wo_entrp">     -3.32181703 </i>
    <i name="e_0_energy">     -3.32181703 </i>
   </energy>
  </scstep>
  <scstep>
   <time name="total">    5.23    5.24</time>
   <energy>
    <i name="e_fr_energy">     -3.32271676 </i>
    <i name="e_wo_entrp">     -3.32271676 </i>
    <i name="e_0_energy">     -3.32271676 </i>
   </energy>
  </scstep>
  <scstep>
   <time name="total">    2.17    2.18</time>
   <energy>
    <i name="e_fr_energy">     -3.32273628 </i>
    <i name="e_wo_entrp">     -3.32273628 </i>
    <i name="e_0_energy">     -3.32273628 </i>
   </energy>
  </scstep>
  <scstep>
   <time name="total">    6.49    6.54</time>
   <energy>
    <i name="e_fr_energy">     -3.32286834 </i>
    <i name="e_wo_entrp">     -3.32286834 </i>
    <i name="e_0_energy">     -3.32286834 </i>
   </energy>
  </scstep>
  <scstep>
   <time name="total">    5.89    5.95</time>
   <energy>
    <i name="e_fr_energy">     -3.32298882 </i>
    <i name="e_wo_entrp">     -3.32298882 </i>
    <i name="e_0_energy">     -3.32298882 </i>
   </energy>
  </scstep>
  <scstep>
   <time name="total">    5.34    5.65</time>
   <energy>
    <i name="e_fr_energy">     -3.32304810 </i>
    <i name="e_wo_entrp">     -3.32304810 </i>
    <i name="e_0_energy">     -3.32304810 </i>
   </energy>
  </scstep>
  <scstep>
   <time name="total">    5.73    5.74</time>
   <energy>
    <i name="e_fr_energy">     -3.32306781 </i>
    <i name="e_wo_entrp">     -3.32306781 </i>
    <i name="e_0_energy">     -3.32306781 </i>
   </energy>
  </scstep>
  <scstep>
   <time name="total">    1.43    1.50</time>
   <energy>
    <i name="e_fr_energy">     -3.32307212 </i>
    <i name="e_wo_entrp">     -3.32307212 </i>
    <i name="e_0_energy">     -3.32307212 </i>
   </energy>
  </scstep>
  <scstep>
   <time name="total">    4.04    4.10</time>
   <energy>
    <i name="alphaZ">     36.74310680 </i>
    <i name="ewald">   -740.78755578 </i>
    <i name="hartreedc">   -115.87832532 </i>
    <i name="XCdc">     -2.37201637 </i>
    <i name="pawpsdc">   1338.63041600 </i>
    <i name="pawaedc">  -1312.57085906 </i>
    <i name="eentropy">     -0.00000000 </i>
    <i name="bandstr">   -106.08553762 </i>
    <i name="atom">    869.57236141 </i>
    <i name="e_fr_energy">     -3.32307274 </i>
    <i name="e_wo_entrp">     -3.32307274 </i>
    <i name="e_0_energy">     -3.32307274 </i>
   </energy>
  </scstep>
  <structure>
   <crystal>
    <varray name="basis" >
     <v>       4.56700000       0.00000000       0.00000000 </v>
     <v>       0.00000000       4.56700000       0.00000000 </v>
     <v>       0.00000000       0.00000000       4.56700000 </v>
    </varray>
    <i name="volume">     95.25615226 </i>
    <varray name="rec_basis" >
     <v>       0.21896212       0.00000000       0.00000000 </v>
     <v>       0.00000000       0.21896212       0.00000000 </v>
     <v>       0.00000000       0.00000000       0.21896212 </v>
    </varray>
   </crystal>
   <varray name="positions" >
    <v>       0.00000000       0.00000000       0.00000000 </v>
    <v>       0.50000000       0.50000000       0.50000000 </v>
   </varray>
  </structure>
  <varray name="forces" >
   <v>       0.00000000       0.00000000       0.00000000 </v>
   <v>       0.00000000       0.00000000       0.00000000 </v>
  </varray>
  <energy>
   <i name="e_fr_energy">     -3.32307274 </i>
   <i name="e_wo_entrp">     -3.32307274 </i>
   <i name="e_0_energy">     -0.00000000 </i>
  </energy>
  <time name="totalsc">   51.58   52.80</time>
  <eigenvalues>
   <array>
    <dimension dim="1">band</dimension>
    <dimension dim="2">kpoint</dimension>
    <dimension dim="3">spin</dimension>
    <field>eigene</field>
    <field>occ</field>
    <set>
     <set comment="spin 1">
      <set comment="kpoint 1">
       <r>  -21.5903    1.0000 </r>
       <r>  -10.4759    1.0000 </r>
       <r>   -7.4861    1.0000 </r>
       <r>   -7.4861    1.0000 </r>
       <r>   -7.4861    1.0000 </r>
       <r>    0.4939    1.0000 </r>
       <r>    0.4939    1.0000 </r>
       <r>    0.4939    1.0000 </r>
       <r>    5.6128    0.0000 </r>
       <r>    5.7441    0.0000 </r>
       <r>    5.7441    0.0000 </r>
       <r>    9.3300    0.0000 </r>
       <r>    9.3300    0.0000 </r>
       <r>    9.3300    0.0000 </r>
       <r>   12.1284    0.0000 </r>
       <r>   12.1284    0.0000 </r>
      </set>
     </set>
    </set>
   </array>
  </eigenvalues>
  <separator name="orbital magnetization" >
   <v name="MAGDIPOLOUT">      0.00000000      0.00000000      0.00000000</v>
  </separator>
  <dos>
   <i name="efermi">      0.73987667 </i>
   <total>
    <array>
     <dimension dim="1">gridpoints</dimension>
     <dimension dim="2">spin</dimension>
     <field>energy</field>
     <field>total</field>
     <field>integrated</field>
     <set>
      <set comment="spin 1">
       <r>   -23.2763     0.0000     0.0000 </r>
       <r>   -23.1526     0.0000     0.0000 </r>
       <r>   -23.0290     0.0000     0.0000 </r>
       <r>   -22.9054     0.0000     0.0000 </r>
       <r>   -22.7817     0.0000     0.0000 </r>
       <r>   -22.6581     0.0000     0.0000 </r>
       <r>   -22.5345     0.0000     0.0000 </r>
       <r>   -22.4108     0.0000     0.0000 </r>
       <r>   -22.2872     0.0000     0.0000 </r>
       <r>   -22.1636     0.0000     0.0000 </r>
       <r>   -22.0399     0.0000     0.0000 </r>
       <r>   -21.9163     0.0000     0.0000 </r>
       <r>   -21.7926     0.0000     0.0000 </r>
       <r>   -21.6690     0.2108     0.0261 </r>
       <r>   -21.5454    14.3198     1.7965 </r>
       <r>   -21.4217     1.6460     2.0000 </r>
       <r>   -21.2981     0.0000     2.0000 </r>
       <r>   -21.1745     0.0000     2.0000 </r>
       <r>   -21.0508     0.0000     2.0000 </r>
       <r>   -20.9272     0.0000     2.0000 </r>
       <r>   -20.8036     0.0000     2.0000 </r>
       <r>   -20.6799     0.0000     2.0000 </r>
       <r>   -20.5563     0.0000     2.0000 </r>
       <r>   -20.4327     0.0000     2.0000 </r>
       <r>   -20.3090     0.0000     2.0000 </r>
       <r>   -20.1854     0.0000     2.0000 </r>
       <r>   -20.0618     0.0000     2.0000 </r>
       <r>   -19.9381     0.0000     2.0000 </r>
       <r>   -19.8145     0.0000     2.0000 </r>
       <r>   -19.6908     0.0000     2.0000 </r>
       <r>   -19.5672     0.0000     2.0000 </r>
       <r>   -19.4436     0.0000     2.0000 </r>
       <r>   -19.3199     0.0000     2.0000 </r>
       <r>   -19.1963     0.0000     2.0000 </r>
       <r>   -19.0727     0.0000     2.0000 </r>
       <r>   -18.9490     0.0000     2.0000 </r>
       <r>   -18.8254     0.0000     2.0000 </r>
       <r>   -18.7018     0.0000     2.0000 </r>
       <r>   -18.5781     0.0000     2.0000 </r>
       <r>   -18.4545     0.0000     2.0000 </r>
       <r>   -18.3309     0.0000     2.0000 </r>
       <r>   -18.2072     0.0000     2.0000 </r>
       <r>   -18.0836     0.0000     2.0000 </r>
       <r>   -17.9600     0.0000     2.0000 </r>
       <r>   -17.8363     0.0000     2.0000 </r>
       <r>   -17.7127     0.0000     2.0000 </r>
       <r>   -17.5890     0.0000     2.0000 </r>
       <r>   -17.4654     0.0000     2.0000 </r>
       <r>   -17.3418     0.0000     2.0000 </r>
       <r>   -17.2181     0.0000     2.0000 </r>
       <r>   -17.0945     0.0000     2.0000 </r>
       <r>   -16.9709     0.0000     2.0000 </r>
       <r>   -16.8472     0.0000     2.0000 </r>
       <r>   -16.7236     0.0000     2.0000 </r>
       <r>   -16.6000     0.0000     2.0000 </r>
       <r>   -16.4763     0.0000     2.0000 </r>
       <r>   -16.3527     0.0000     2.0000 </r>
       <r>   -16.2291     0.0000     2.0000 </r>
       <r>   -16.1054     0.0000     2.0000 </r>
       <r>   -15.9818     0.0000     2.0000 </r>
       <r>   -15.8582     0.0000     2.0000 </r>
       <r>   -15.7345     0.0000     2.0000 </r>
       <r>   -15.6109     0.0000     2.0000 </r>
       <r>   -15.4873     0.0000     2.0000 </r>
       <r>   -15.3636     0.0000     2.0000 </r>
       <r>   -15.2400     0.0000     2.0000 </r>
       <r>   -15.1163     0.0000     2.0000 </r>
       <r>   -14.9927     0.0000     2.0000 </r>
       <r>   -14.8691     0.0000     2.0000 </r>
       <r>   -14.7454     0.0000     2.0000 </r>
       <r>   -14.6218     0.0000     2.0000 </r>
       <r>   -14.4982     0.0000     2.0000 </r>
       <r>   -14.3745     0.0000     2.0000 </r>
       <r>   -14.2509     0.0000     2.0000 </r>
       <r>   -14.1273     0.0000     2.0000 </r>
       <r>   -14.0036     0.0000     2.0000 </r>
       <r>   -13.8800     0.0000     2.0000 </r>
       <r>   -13.7564     0.0000     2.0000 </r>
       <r>   -13.6327     0.0000     2.0000 </r>
       <r>   -13.5091     0.0000     2.0000 </r>
       <r>   -13.3855     0.0000     2.0000 </r>
       <r>   -13.2618     0.0000     2.0000 </r>
       <r>   -13.1382     0.0000     2.0000 </r>
       <r>   -13.0145     0.0000     2.0000 </r>
       <r>   -12.8909     0.0000     2.0000 </r>
       <r>   -12.7673     0.0000     2.0000 </r>
       <r>   -12.6436     0.0000     2.0000 </r>
       <r>   -12.5200     0.0000     2.0000 </r>
       <r>   -12.3964     0.0000     2.0000 </r>
       <r>   -12.2727     0.0000     2.0000 </r>
       <r>   -12.1491     0.0000     2.0000 </r>
       <r>   -12.0255     0.0000     2.0000 </r>
       <r>   -11.9018     0.0000     2.0000 </r>
       <r>   -11.7782     0.0000     2.0000 </r>
       <r>   -11.6546     0.0000     2.0000 </r>
       <r>   -11.5309     0.0000     2.0000 </r>
       <r>   -11.4073     0.0000     2.0000 </r>
       <r>   -11.2837     0.0000     2.0000 </r>
       <r>   -11.1600     0.0000     2.0000 </r>
       <r>   -11.0364     0.0000     2.0000 </r>
       <r>   -10.9127     0.0000     2.0000 </r>
       <r>   -10.7891     0.0000     2.0000 </r>
       <r>   -10.6655     0.0000     2.0000 </r>
       <r>   -10.5418     0.5024     2.0621 </r>
       <r>   -10.4182    14.8428     3.8972 </r>
       <r>   -10.2946     0.8315     4.0000 </r>
       <r>   -10.1709     0.0000     4.0000 </r>
       <r>   -10.0473     0.0000     4.0000 </r>
       <r>    -9.9237     0.0000     4.0000 </r>
       <r>    -9.8000     0.0000     4.0000 </r>
       <r>    -9.6764     0.0000     4.0000 </r>
       <r>    -9.5528     0.0000     4.0000 </r>
       <r>    -9.4291     0.0000     4.0000 </r>
       <r>    -9.3055     0.0000     4.0000 </r>
       <r>    -9.1819     0.0000     4.0000 </r>
       <r>    -9.0582     0.0000     4.0000 </r>
       <r>    -8.9346     0.0000     4.0000 </r>
       <r>    -8.8109     0.0000     4.0000 </r>
       <r>    -8.6873     0.0000     4.0000 </r>
       <r>    -8.5637     0.0000     4.0000 </r>
       <r>    -8.4400     0.0000     4.0000 </r>
       <r>    -8.3164     0.0000     4.0000 </r>
       <r>    -8.1928     0.0000     4.0000 </r>
       <r>    -8.0691     0.0000     4.0000 </r>
       <r>    -7.9455     0.0000     4.0000 </r>
       <r>    -7.8219     0.0000     4.0000 </r>
       <r>    -7.6982     0.0000     4.0000 </r>
       <r>    -7.5746     0.2990     4.0370 </r>
       <r>    -7.4510    40.4619     9.0395 </r>
       <r>    -7.3273     7.7689    10.0000 </r>
       <r>    -7.2037     0.0002    10.0000 </r>
       <r>    -7.0801     0.0000    10.0000 </r>
       <r>    -6.9564     0.0000    10.0000 </r>
       <r>    -6.8328     0.0000    10.0000 </r>
       <r>    -6.7091     0.0000    10.0000 </r>
       <r>    -6.5855     0.0000    10.0000 </r>
       <r>    -6.4619     0.0000    10.0000 </r>
       <r>    -6.3382     0.0000    10.0000 </r>
       <r>    -6.2146     0.0000    10.0000 </r>
       <r>    -6.0910     0.0000    10.0000 </r>
       <r>    -5.9673     0.0000    10.0000 </r>
       <r>    -5.8437     0.0000    10.0000 </r>
       <r>    -5.7201     0.0000    10.0000 </r>
       <r>    -5.5964     0.0000    10.0000 </r>
       <r>    -5.4728     0.0000    10.0000 </r>
       <r>    -5.3492     0.0000    10.0000 </r>
       <r>    -5.2255     0.0000    10.0000 </r>
       <r>    -5.1019     0.0000    10.0000 </r>
       <r>    -4.9783     0.0000    10.0000 </r>
       <r>    -4.8546     0.0000    10.0000 </r>
       <r>    -4.7310     0.0000    10.0000 </r>
       <r>    -4.6073     0.0000    10.0000 </r>
       <r>    -4.4837     0.0000    10.0000 </r>
       <r>    -4.3601     0.0000    10.0000 </r>
       <r>    -4.2364     0.0000    10.0000 </r>
       <r>    -4.1128     0.0000    10.0000 </r>
       <r>    -3.9892     0.0000    10.0000 </r>
       <r>    -3.8655     0.0000    10.0000 </r>
       <r>    -3.7419     0.0000    10.0000 </r>
       <r>    -3.6183     0.0000    10.0000 </r>
       <r>    -3.4946     0.0000    10.0000 </r>
       <r>    -3.3710     0.0000    10.0000 </r>
       <r>    -3.2474     0.0000    10.0000 </r>
       <r>    -3.1237     0.0000    10.0000 </r>
       <r>    -3.0001     0.0000    10.0000 </r>
       <r>    -2.8765     0.0000    10.0000 </r>
       <r>    -2.7528     0.0000    10.0000 </r>
       <r>    -2.6292     0.0000    10.0000 </r>
       <r>    -2.5055     0.0000    10.0000 </r>
       <r>    -2.3819     0.0000    10.0000 </r>
       <r>    -2.2583     0.0000    10.0000 </r>
       <r>    -2.1346     0.0000    10.0000 </r>
       <r>    -2.0110     0.0000    10.0000 </r>
       <r>    -1.8874     0.0000    10.0000 </r>
       <r>    -1.7637     0.0000    10.0000 </r>
       <r>    -1.6401     0.0000    10.0000 </r>
       <r>    -1.5165     0.0000    10.0000 </r>
       <r>    -1.3928     0.0000    10.0000 </r>
       <r>    -1.2692     0.0000    10.0000 </r>
       <r>    -1.1456     0.0000    10.0000 </r>
       <r>    -1.0219     0.0000    10.0000 </r>
       <r>    -0.8983     0.0000    10.0000 </r>
       <r>    -0.7747     0.0000    10.0000 </r>
       <r>    -0.6510     0.0000    10.0000 </r>
       <r>    -0.5274     0.0000    10.0000 </r>
       <r>    -0.4037     0.0000    10.0000 </r>
       <r>    -0.2801     0.0000    10.0000 </r>
       <r>    -0.1565     0.0000    10.0000 </r>
       <r>    -0.0328     0.0000    10.0000 </r>
       <r>     0.0908     0.0000    10.0000 </r>
       <r>     0.2144     0.0000    10.0000 </r>
       <r>     0.3381     0.0003    10.0000 </r>
       <r>     0.4617     8.7841    11.0861 </r>
       <r>     0.5853    39.5095    15.9708 </r>
       <r>     0.7090     0.2360    16.0000 </r>
       <r>     0.8326     0.0000    16.0000 </r>
       <r>     0.9562     0.0000    16.0000 </r>
       <r>     1.0799     0.0000    16.0000 </r>
       <r>     1.2035     0.0000    16.0000 </r>
       <r>     1.3271     0.0000    16.0000 </r>
       <r>     1.4508     0.0000    16.0000 </r>
       <r>     1.5744     0.0000    16.0000 </r>
       <r>     1.6980     0.0000    16.0000 </r>
       <r>     1.8217     0.0000    16.0000 </r>
       <r>     1.9453     0.0000    16.0000 </r>
       <r>     2.0690     0.0000    16.0000 </r>
       <r>     2.1926     0.0000    16.0000 </r>
       <r>     2.3162     0.0000    16.0000 </r>
       <r>     2.4399     0.0000    16.0000 </r>
       <r>     2.5635     0.0000    16.0000 </r>
       <r>     2.6871     0.0000    16.0000 </r>
       <r>     2.8108     0.0000    16.0000 </r>
       <r>     2.9344     0.0000    16.0000 </r>
       <r>     3.0580     0.0000    16.0000 </r>
       <r>     3.1817     0.0000    16.0000 </r>
       <r>     3.3053     0.0000    16.0000 </r>
       <r>     3.4289     0.0000    16.0000 </r>
       <r>     3.5526     0.0000    16.0000 </r>
       <r>     3.6762     0.0000    16.0000 </r>
       <r>     3.7998     0.0000    16.0000 </r>
       <r>     3.9235     0.0000    16.0000 </r>
       <r>     4.0471     0.0000    16.0000 </r>
       <r>     4.1708     0.0000    16.0000 </r>
       <r>     4.2944     0.0000    16.0000 </r>
       <r>     4.4180     0.0000    16.0000 </r>
       <r>     4.5417     0.0000    16.0000 </r>
       <r>     4.6653     0.0000    16.0000 </r>
       <r>     4.7889     0.0000    16.0000 </r>
       <r>     4.9126     0.0000    16.0000 </r>
       <r>     5.0362     0.0000    16.0000 </r>
       <r>     5.1598     0.0000    16.0000 </r>
       <r>     5.2835     0.0000    16.0000 </r>
       <r>     5.4071     0.0000    16.0000 </r>
       <r>     5.5307     0.1644    16.0203 </r>
       <r>     5.6544    14.2570    17.7830 </r>
       <r>     5.7780    28.6523    21.3254 </r>
       <r>     5.9016     5.4560    22.0000 </r>
       <r>     6.0253     0.0001    22.0000 </r>
       <r>     6.1489     0.0000    22.0000 </r>
       <r>     6.2726     0.0000    22.0000 </r>
       <r>     6.3962     0.0000    22.0000 </r>
       <r>     6.5198     0.0000    22.0000 </r>
       <r>     6.6435     0.0000    22.0000 </r>
       <r>     6.7671     0.0000    22.0000 </r>
       <r>     6.8907     0.0000    22.0000 </r>
       <r>     7.0144     0.0000    22.0000 </r>
       <r>     7.1380     0.0000    22.0000 </r>
       <r>     7.2616     0.0000    22.0000 </r>
       <r>     7.3853     0.0000    22.0000 </r>
       <r>     7.5089     0.0000    22.0000 </r>
       <r>     7.6325     0.0000    22.0000 </r>
       <r>     7.7562     0.0000    22.0000 </r>
       <r>     7.8798     0.0000    22.0000 </r>
       <r>     8.0034     0.0000    22.0000 </r>
       <r>     8.1271     0.0000    22.0000 </r>
       <r>     8.2507     0.0000    22.0000 </r>
       <r>     8.3744     0.0000    22.0000 </r>
       <r>     8.4980     0.0000    22.0000 </r>
       <r>     8.6216     0.0000    22.0000 </r>
       <r>     8.7453     0.0000    22.0000 </r>
       <r>     8.8689     0.0000    22.0000 </r>
       <r>     8.9925     0.0000    22.0000 </r>
       <r>     9.1162     0.0000    22.0000 </r>
       <r>     9.2398     0.2610    22.0323 </r>
       <r>     9.3634    39.9226    26.9681 </r>
       <r>     9.4871     8.3461    28.0000 </r>
       <r>     9.6107     0.0002    28.0000 </r>
       <r>     9.7343     0.0000    28.0000 </r>
       <r>     9.8580     0.0000    28.0000 </r>
       <r>     9.9816     0.0000    28.0000 </r>
       <r>    10.1052     0.0000    28.0000 </r>
       <r>    10.2289     0.0000    28.0000 </r>
       <r>    10.3525     0.0000    28.0000 </r>
       <r>    10.4762     0.0000    28.0000 </r>
       <r>    10.5998     0.0000    28.0000 </r>
       <r>    10.7234     0.0000    28.0000 </r>
       <r>    10.8471     0.0000    28.0000 </r>
       <r>    10.9707     0.0000    28.0000 </r>
       <r>    11.0943     0.0000    28.0000 </r>
       <r>    11.2180     0.0000    28.0000 </r>
       <r>    11.3416     0.0000    28.0000 </r>
       <r>    11.4652     0.0000    28.0000 </r>
       <r>    11.5889     0.0000    28.0000 </r>
       <r>    11.7125     0.0000    28.0000 </r>
       <r>    11.8361     0.0000    28.0000 </r>
       <r>    11.9598     0.0000    28.0000 </r>
       <r>    12.0834     3.2921    28.4070 </r>
       <r>    12.2070    28.6396    31.9479 </r>
       <r>    12.3307     0.4216    32.0000 </r>
       <r>    12.4543     0.0000    32.0000 </r>
       <r>    12.5780     0.0000    32.0000 </r>
       <r>    12.7016     0.0000    32.0000 </r>
       <r>    12.8252     0.0000    32.0000 </r>
       <r>    12.9489     0.0000    32.0000 </r>
       <r>    13.0725     0.0000    32.0000 </r>
       <r>    13.1961     0.0000    32.0000 </r>
       <r>    13.3198     0.0000    32.0000 </r>
       <r>    13.4434     0.0000    32.0000 </r>
       <r>    13.5670     0.0000    32.0000 </r>
       <r>    13.6907     0.0000    32.0000 </r>
       <r>    13.8143     0.0000    32.0000 </r>
      </set>
     </set>
    </array>
   </total>
  </dos>
 </calculation>
 <structure name="finalpos" >
  <crystal>
   <varray name="basis" >
    <v>       4.56700000       0.00000000       0.00000000 </v>
    <v>       0.00000000       4.56700000       0.00000000 </v>
    <v>       0.00000000       0.00000000       4.56700000 </v>
   </varray>
   <i name="volume">     95.25615226 </i>
   <varray name="rec_basis" >
    <v>       0.21896212       0.00000000       0.00000000 </v>
    <v>       0.00000000       0.21896212       0.00000000 </v>
    <v>       0.00000000       0.00000000       0.21896212 </v>
   </varray>
  </crystal>
  <varray name="positions" >
   <v>       0.00000000       0.00000000       0.00000000 </v>
   <v>       0.50000000       0.50000000       0.50000000 </v>
  </varray>
 </structure>
</modeling>
