 running on   32 total cores
 distrk:  each k-point on   32 cores,    1 groups
 distr:  one band on    4 cores,    8 groups
 using from now: INCAR     
 vasp.5.4.4.18Apr17-6-g9f103f2a35 (build Mar 10 2026 18:18:58) gamma-only       
  
 POSCAR found type information on POSCAR  Cs I 
 POSCAR found :  2 types and       2 ions
 scaLAPACK will be used
 LDA part: xc-table for Pade appr. of Perdew
 POSCAR, INCAR and KPOINTS ok, starting setup
 FFT: planning ...
 WAVECAR not read
 entering main loop
       N       E                     dE             d eps       ncg     rms          rms(c)
DAV:   1     0.130884997292E+03    0.13088E+03   -0.49800E+03    32   0.547E+02
DAV:   2     0.146220670643E+02   -0.11626E+03   -0.10422E+03    64   0.117E+02
DAV:   3    -0.143494648304E+01   -0.16057E+02   -0.15794E+02    40   0.542E+01
DAV:   4    -0.180046338862E+01   -0.36552E+00   -0.36544E+00    32   0.867E+00
DAV:   5    -0.180281923417E+01   -0.23558E-02   -0.23558E-02    48   0.815E-01    0.263E+00
DAV:   6    -0.139906111998E+01    0.40376E+00   -0.58441E-01    32   0.248E+00    0.189E+00
DAV:   7    -0.133737884503E+01    0.61682E-01   -0.60516E-01    40   0.254E+00    0.166E+00
DAV:   8    -0.135458311945E+01   -0.17204E-01   -0.44549E-02    32   0.103E+00    0.746E-01
DAV:   9    -0.135357043626E+01    0.10127E-02   -0.35128E-03    32   0.207E-01    0.249E-01
DAV:  10    -0.135380315036E+01   -0.23271E-03   -0.60768E-04    32   0.151E-01    0.277E-02
DAV:  11    -0.135380154707E+01    0.16033E-05   -0.78730E-06    32   0.142E-02    0.186E-02
DAV:  12    -0.135380265485E+01   -0.11078E-05   -0.96951E-06    32   0.149E-02    0.197E-03
DAV:  13    -0.135380307101E+01   -0.41616E-06   -0.95575E-08    16   0.213E-03
   1 F= -.13538031E+01 E0= -.13538031E+01  d E =-.105396E-12
 writing wavefunctions
