 running on   32 total cores
 distrk:  each k-point on   32 cores,    1 groups
 distr:  one band on    4 cores,    8 groups
 using from now: INCAR     
 vasp.5.4.4.18Apr17-6-g9f103f2a35 (build Mar 10 2026 18:18:58) gamma-only       
  
 POSCAR found type information on POSCAR  Cs I 
 POSCAR found :  2 types and       2 ions
 scaLAPACK will be used
 LDA part: xc-table for Pade appr. of Perdew
 found WAVECAR, reading the header
 POSCAR, INCAR and KPOINTS ok, starting setup
 FFT: planning ...
 reading WAVECAR
 the WAVECAR file was read successfully
 initial charge from wavefunction
 entering main loop
       N       E                     dE             d eps       ncg     rms          ort
 gam= 0.000 g(H,U,f)=  0.116E+00 0.660E-04 0.376E-10 ort(H,U,f) = 0.000E+00 0.000E+00 0.000E+00
SDA:   1    -0.325540574181E+01   -0.32554E+01   -0.46278E-01    16   0.116E+00 0.000E+00
 gam= 0.382 g(H,U,f)=  0.483E-01 0.755E-04 0.416E-12 ort(H,U,f) = 0.699E-01 0.559E-04 0.485E-12
DMP:   2    -0.329257805152E+01   -0.37172E-01   -0.30016E-01    16   0.483E-01 0.699E-01
 gam= 0.382 g(H,U,f)=  0.139E-01 0.846E-04 0.512E-17 ort(H,U,f) = 0.361E-01 0.934E-04 0.951E-17
DMP:   3    -0.331466169608E+01   -0.22084E-01   -0.11118E-01    16   0.140E-01 0.362E-01
 gam= 0.382 g(H,U,f)=  0.195E-02 0.576E-04 0.194E-25 ort(H,U,f) = 0.754E-02 0.949E-04 0.595E-26
DMP:   4    -0.332181703279E+01   -0.71553E-02   -0.19688E-02    16   0.200E-02 0.764E-02
 gam= 0.382 g(H,U,f)=  0.638E-03 0.293E-04 0.206E-26 ort(H,U,f) =-0.655E-03 0.650E-04-0.239E-25
DMP:   5    -0.332271675918E+01   -0.89973E-03   -0.17695E-03    16   0.668E-03-0.590E-03
 gam= 0.382 g(H,U,f)=  0.605E-03 0.137E-04 0.439E-16 ort(H,U,f) =-0.432E-03 0.362E-04 0.135E-15
DMP:   6    -0.332273628410E+01   -0.19525E-04   -0.18695E-03    16   0.619E-03-0.396E-03
 gam= 0.382 g(H,U,f)=  0.328E-03 0.670E-05-0.226E-26 ort(H,U,f) = 0.181E-03 0.189E-04-0.681E-26
DMP:   7    -0.332286833771E+01   -0.13205E-03   -0.16425E-03    16   0.334E-03 0.200E-03
 gam= 0.382 g(H,U,f)=  0.127E-03 0.335E-05 0.213E-14 ort(H,U,f) = 0.205E-03 0.971E-05 0.756E-14
DMP:   8    -0.332298882187E+01   -0.12048E-03   -0.84798E-04    16   0.130E-03 0.215E-03
 gam= 0.382 g(H,U,f)=  0.376E-04 0.148E-05 0.151E-17 ort(H,U,f) = 0.100E-03 0.465E-05 0.571E-17
DMP:   9    -0.332304809794E+01   -0.59276E-04   -0.31639E-04    16   0.391E-04 0.105E-03
 gam= 0.382 g(H,U,f)=  0.852E-05 0.549E-06 0.680E-20 ort(H,U,f) = 0.305E-04 0.197E-05 0.277E-19
DMP:  10    -0.332306780643E+01   -0.19708E-04   -0.85948E-05    16   0.907E-05 0.325E-04
 gam= 0.382 g(H,U,f)=  0.239E-05 0.180E-06 0.130E-21 ort(H,U,f) = 0.617E-05 0.740E-06 0.569E-21
DMP:  11    -0.332307211563E+01   -0.43092E-05   -0.20814E-05    16   0.257E-05 0.691E-05
 gam= 0.382 g(H,U,f)=  0.795E-06 0.566E-07-0.775E-27 ort(H,U,f) = 0.836E-06 0.259E-06-0.375E-26
DMP:  12    -0.332307274181E+01   -0.62618E-06   -0.50778E-06    16   0.851E-06 0.109E-05
 final diagonalization
   1 F= -.33230727E+01 E0= -.33230727E+01  d E =-.636505E-11
